Al La  O Sr Ti 
 1.0000000000000000
    11.8003758600000008    0.0000000000000000    0.0000000000000000
     0.0000000000000000   47.2015035000000012    0.0000000000000000
     0.0000000000000000    0.0000000000000000   19.8398086061615189
 Al  La  O   Sr  Ti 
  18  18 288  54  90
Selective dynamics
Cartesian
  1.9837706967693614 21.7731230205193320  6.9726313299675509   F   F   F
  1.9838666551605522 25.4534975185842498  6.9727272883587421   F   F   F
  1.9837706967693614 21.7731230205193320 10.9060899499675514   F   F   F
  1.9838666551605522 25.4534975185842498 10.9061859083587418   F   F   F
  1.9837706967693614 21.7731230205193320 14.8395485699675511   T   T   T
  1.9838666551605522 25.4534975185842498 14.8396445283587415   T   T   T
  5.9172293167693617 21.7731230205193320  6.9726313299675509   F   F   F
  5.9173252751605521 25.4534975185842498  6.9727272883587421   F   F   F
  5.9172293167693617 21.7731230205193320 10.9060899499675514   F   F   F
  5.9173252751605521 25.4534975185842498 10.9061859083587418   F   F   F
  5.9172293167693617 21.7731230205193320 14.8395485699675511   T   T   T
  5.9173252751605521 25.4534975185842498 14.8396445283587415   T   T   T
  9.8506879367693614 21.7731230205193320  6.9726313299675509   F   F   F
  9.8507838951605518 25.4534975185842498  6.9727272883587421   F   F   F
  9.8506879367693614 21.7731230205193320 10.9060899499675514   F   F   F
  9.8507838951605518 25.4534975185842498 10.9061859083587418   F   F   F
  9.8506879367693614 21.7731230205193320 14.8395485699675511   T   T   T
  9.8507838951605518 25.4534975185842498 14.8396445283587415   T   T   T
  0.0162186017345963 19.8785951677560355  8.9385378549327861   F   F   F
  0.0173163207618881 23.6130236753602318  8.9396355739600786   F   F   F
  0.0171575790900602 27.3472401459571302  8.9394768322882499   F   F   F
  0.0162186017345963 19.8785951677560355 12.8719964749327875   T   T   T
  0.0173163207618881 23.6130236753602318 12.8730941939600783   T   T   T
  0.0171575790900602 27.3472401459571302 12.8729354522882495   T   T   T
  3.9496772217345963 19.8785951677560355  8.9385378549327861   F   F   F
  3.9507749407618884 23.6130236753602318  8.9396355739600786   F   F   F
  3.9506161990900601 27.3472401459571302  8.9394768322882499   F   F   F
  3.9496772217345963 19.8785951677560355 12.8719964749327875   T   T   T
  3.9507749407618884 23.6130236753602318 12.8730941939600783   T   T   T
  3.9506161990900601 27.3472401459571302 12.8729354522882495   T   T   T
  7.8831358417345969 19.8785951677560355  8.9385378549327861   F   F   F
  7.8842335607618885 23.6130236753602318  8.9396355739600786   F   F   F
  7.8840748190900607 27.3472401459571302  8.9394768322882499   F   F   F
  7.8831358417345969 19.8785951677560355 12.8719964749327875   T   T   T
  7.8842335607618885 23.6130236753602318 12.8730941939600783   T   T   T
  7.8840748190900607 27.3472401459571302 12.8729354522882495   T   T   T
  0.0171298514981969 25.4657620267156481  6.9728913661615186   F   F   F
  1.9836418981493207 27.3010866487097701  6.9725025313475104   F   F   F
  0.0163919593430260 29.1740121592554829  6.9724115962409137   F   F   F
  0.0149435876920175 33.2485399544070290  6.9709780820726515   F   F   F
  1.9808820031273366 35.2697376767604638  6.9697426363255266   F   F   F
  1.9793449848306550 39.2581400281193424  6.9682056180288452   F   F   F
  0.0130434214986255 37.2560251494681225  6.9688399213945278   F   F   F
  0.0116407127854366 41.2446751602884447  6.9673969066576467   F   F   F
  1.9780797196313624 43.2390095872966356  6.9669403528295524   F   F   F
  0.0111393668018112 45.2269429584782543  6.9668891612771020   F   F   F
  1.9837910504377452 23.6136658158367787  6.9726516836359345   F   F   F
  1.9823149730753751 31.2580324415159332  6.9711756062735653   F   F   F
  0.0169395381321735 21.7602455226277733  6.9726485443398971   F   F   F
  1.9779454480468994  0.0147236685991293  6.9668060812450889   F   F   F
  0.0112539930773714  2.0035478457202061  6.9669077437811353   F   F   F
  1.9784066968365319  3.9917353127874153  6.9672673300347219   F   F   F
  0.0118059989410926  5.9854239445621573  6.9675387177574457   F   F   F
  1.9795260357171036  7.9715509568069889  6.9683866689152936   F   F   F
  1.9812260558226484 11.9603760433751276  6.9700866890208379   F   F   F
  0.0151835498187970 13.9830903295867515  6.9710614896920013   F   F   F
  1.9823508108677173 15.9728708924744431  6.9712114440659070   F   F   F
  0.0156995211104760 18.0553904567282935  6.9714691753318014   F   F   F
  1.9835273984297142 19.9267867656945512  6.9723880316279043   F   F   F
  0.0137290640861694  9.9727529659403906  6.9696470381194331   F   F   F
  0.0171298514981969 25.4657620267156481 10.9063499861615192   F   F   F
  1.9836418981493207 27.3010866487097701 10.9059611513475119   F   F   F
  1.9835509630427235 29.1740121592554829  8.9387112125412163   F   F   F
  0.0163919593430260 29.1740121592554829 10.9058702162409134   F   F   F
  1.9821174488744613 33.2485399544070290  8.9372628408902077   F   F   F
  0.0149435876920175 33.2485399544070290 10.9044367020726511   F   F   F
  1.9808820031273366 35.2697376767604638 10.9032012563255272   F   F   F
  1.9793449848306550 39.2581400281193424 10.9016642380288467   F   F   F
  0.0130434214986255 37.2560251494681225 10.9022985413945293   F   F   F
  1.9840307329633291 25.4657620267156481  8.9394491046963864   F   F   F
  1.9785362734594569 41.2446751602884447  8.9339599659836271   F   F   F
  0.0116407127854366 41.2446751602884447 10.9008555266576472   F   F   F
  1.9780797196313624 43.2390095872966356 10.9003989728295529   F   F   F
  1.9780285280789123 45.2269429584782543  8.9334586200000015   F   F   F
  0.0111393668018112 45.2269429584782543 10.9003477812771017   F   F   F
  1.9799792881963376 37.2560251494681225  8.9353626746968153   F   F   F
  1.9837910504377452 23.6136658158367787 10.9061103036359341   F   F   F
  1.9823149730753751 31.2580324415159332 10.9046342262735649   F   F   F
  1.9837879111417078 21.7602455226277733  8.9392587913303636   F   F   F
  0.0169395381321735 21.7602455226277733 10.9061071643398968   F   F   F
  1.9779454480468994  0.0147236685991293 10.9002647012450886   F   F   F
  1.9780471105829447  2.0035478457202061  8.9335732462755608   F   F   F
  0.0112539930773714  2.0035478457202061 10.9003663637811350   F   F   F
  1.9784066968365319  3.9917353127874153 10.9007259500347224   F   F   F
  1.9786780845592553  5.9854239445621573  8.9341252521392818   F   F   F
  0.0118059989410926  5.9854239445621573 10.9009973377574454   F   F   F
  1.9795260357171036  7.9715509568069889 10.9018452889152933   F   F   F
  1.9807864049212429  9.9727529659403906  8.9360483172843601   F   F   F
  1.9812260558226484 11.9603760433751276 10.9035453090208385   F   F   F
  1.9822008564938118 13.9830903295867515  8.9375028030169865   F   F   F
  0.0151835498187970 13.9830903295867515 10.9045201096920010   F   F   F
  1.9823508108677173 15.9728708924744431 10.9046700640659076   F   F   F
  1.9826085421336117 18.0553904567282935  8.9380187743086665   F   F   F
  0.0156995211104760 18.0553904567282935 10.9049277953318011   F   F   F
  1.9835273984297142 19.9267867656945512 10.9058466516279040   F   F   F
  0.0137290640861694  9.9727529659403906 10.9031056581194328   F   F   F
  0.0171298514981969 25.4657620267156481 14.8398086061615189   T   T   T
  1.9836418981493207 27.3010866487097701 14.8394197713475116   T   T   T
  1.9835509630427235 29.1740121592554829 12.8721698325412159   T   T   T
  0.0163919593430260 29.1740121592554829 14.8393288362409130   T   T   T
  1.9821174488744613 33.2485399544070290 12.8707214608902074   T   T   T
  0.0149435876920175 33.2485399544070290 14.8378953220726508   T   T   T
  1.9808820031273366 35.2697376767604638 14.8366598763255269   T   T   T
  1.9793449848306550 39.2581400281193424 14.8351228580288463   T   T   T
  0.0130434214986255 37.2560251494681225 14.8357571613945272   T   T   T
  1.9840307329633291 25.4657620267156481 12.8729077246963861   T   T   T
  1.9785362734594569 41.2446751602884447 12.8674185859836285   T   T   T
  0.0116407127854366 41.2446751602884447 14.8343141466576469   T   T   T
  1.9780797196313624 43.2390095872966356 14.8338575928295526   T   T   T
  1.9780285280789123 45.2269429584782543 12.8669172400000011   T   T   T
  0.0111393668018112 45.2269429584782543 14.8338064012771014   T   T   T
  1.9799792881963376 37.2560251494681225 12.8688212946968150   T   T   T
  1.9837910504377452 23.6136658158367787 14.8395689236359356   T   T   T
  1.9823149730753751 31.2580324415159332 14.8380928462735646   T   T   T
  1.9837879111417078 21.7602455226277733 12.8727174113303633   T   T   T
  0.0169395381321735 21.7602455226277733 14.8395657843398983   T   T   T
  1.9779454480468994  0.0147236685991293 14.8337233212450901   T   T   T
  1.9780471105829447  2.0035478457202061 12.8670318662755605   T   T   T
  0.0112539930773714  2.0035478457202061 14.8338249837811347   T   T   T
  1.9784066968365319  3.9917353127874153 14.8341845700347221   T   T   T
  1.9786780845592553  5.9854239445621573 12.8675838721392815   T   T   T
  0.0118059989410926  5.9854239445621573 14.8344559577574451   T   T   T
  1.9795260357171036  7.9715509568069889 14.8353039089152929   T   T   T
  1.9807864049212429  9.9727529659403906 12.8695069372843598   T   T   T
  1.9812260558226484 11.9603760433751276 14.8370039290208382   T   T   T
  1.9822008564938118 13.9830903295867515 12.8709614230169880   T   T   T
  0.0151835498187970 13.9830903295867515 14.8379787296920025   T   T   T
  1.9823508108677173 15.9728708924744431 14.8381286840659072   T   T   T
  1.9826085421336117 18.0553904567282935 12.8714773943086662   T   T   T
  0.0156995211104760 18.0553904567282935 14.8383864153318008   T   T   T
  1.9835273984297142 19.9267867656945512 14.8393052716279037   T   T   T
  0.0137290640861694  9.9727529659403906 14.8365642781194325   T   T   T
  3.9505884714981971 25.4657620267156481  6.9728913661615186   F   F   F
  5.9171005181493204 27.3010866487097701  6.9725025313475104   F   F   F
  3.9498505793430261 29.1740121592554829  6.9724115962409137   F   F   F
  3.9484022076920176 33.2485399544070290  6.9709780820726515   F   F   F
  5.9143406231273365 35.2697376767604638  6.9697426363255266   F   F   F
  5.9128036048306551 39.2581400281193424  6.9682056180288452   F   F   F
  3.9465020414986256 37.2560251494681225  6.9688399213945278   F   F   F
  3.9450993327854369 41.2446751602884447  6.9673969066576467   F   F   F
  5.9115383396313623 43.2390095872966356  6.9669403528295524   F   F   F
  3.9445979868018113 45.2269429584782543  6.9668891612771020   F   F   F
  5.9172496704377453 23.6136658158367787  6.9726516836359345   F   F   F
  5.9157735930753752 31.2580324415159332  6.9711756062735653   F   F   F
  3.9503981581321734 21.7602455226277733  6.9726485443398971   F   F   F
  5.9114040680468998  0.0147236685991293  6.9668060812450889   F   F   F
  3.9447126130773715  2.0035478457202061  6.9669077437811353   F   F   F
  5.9118653168365318  3.9917353127874153  6.9672673300347219   F   F   F
  3.9452646189410929  5.9854239445621573  6.9675387177574457   F   F   F
  5.9129846557171035  7.9715509568069889  6.9683866689152936   F   F   F
  5.9146846758226488 11.9603760433751276  6.9700866890208379   F   F   F
  3.9486421698187972 13.9830903295867515  6.9710614896920013   F   F   F
  5.9158094308677178 15.9728708924744431  6.9712114440659070   F   F   F
  3.9491581411104759 18.0553904567282935  6.9714691753318014   F   F   F
  5.9169860184297143 19.9267867656945512  6.9723880316279043   F   F   F
  3.9471876840861695  9.9727529659403906  6.9696470381194331   F   F   F
  3.9505884714981971 25.4657620267156481 10.9063499861615192   F   F   F
  5.9171005181493204 27.3010866487097701 10.9059611513475119   F   F   F
  5.9170095830427236 29.1740121592554829  8.9387112125412163   F   F   F
  3.9498505793430261 29.1740121592554829 10.9058702162409134   F   F   F
  5.9155760688744614 33.2485399544070290  8.9372628408902077   F   F   F
  3.9484022076920176 33.2485399544070290 10.9044367020726511   F   F   F
  5.9143406231273365 35.2697376767604638 10.9032012563255272   F   F   F
  5.9128036048306551 39.2581400281193424 10.9016642380288467   F   F   F
  3.9465020414986256 37.2560251494681225 10.9022985413945293   F   F   F
  5.9174893529633295 25.4657620267156481  8.9394491046963864   F   F   F
  5.9119948934594575 41.2446751602884447  8.9339599659836271   F   F   F
  3.9450993327854369 41.2446751602884447 10.9008555266576472   F   F   F
  5.9115383396313623 43.2390095872966356 10.9003989728295529   F   F   F
  5.9114871480789120 45.2269429584782543  8.9334586200000015   F   F   F
  3.9445979868018113 45.2269429584782543 10.9003477812771017   F   F   F
  5.9134379081963377 37.2560251494681225  8.9353626746968153   F   F   F
  5.9172496704377453 23.6136658158367787 10.9061103036359341   F   F   F
  5.9157735930753752 31.2580324415159332 10.9046342262735649   F   F   F
  5.9172465311417080 21.7602455226277733  8.9392587913303636   F   F   F
  3.9503981581321734 21.7602455226277733 10.9061071643398968   F   F   F
  5.9114040680468998  0.0147236685991293 10.9002647012450886   F   F   F
  5.9115057305829453  2.0035478457202061  8.9335732462755608   F   F   F
  3.9447126130773715  2.0035478457202061 10.9003663637811350   F   F   F
  5.9118653168365318  3.9917353127874153 10.9007259500347224   F   F   F
  5.9121367045592557  5.9854239445621573  8.9341252521392818   F   F   F
  3.9452646189410929  5.9854239445621573 10.9009973377574454   F   F   F
  5.9129846557171035  7.9715509568069889 10.9018452889152933   F   F   F
  5.9142450249212430  9.9727529659403906  8.9360483172843601   F   F   F
  5.9146846758226488 11.9603760433751276 10.9035453090208385   F   F   F
  5.9156594764938122 13.9830903295867515  8.9375028030169865   F   F   F
  3.9486421698187972 13.9830903295867515 10.9045201096920010   F   F   F
  5.9158094308677178 15.9728708924744431 10.9046700640659076   F   F   F
  5.9160671621336114 18.0553904567282935  8.9380187743086665   F   F   F
  3.9491581411104759 18.0553904567282935 10.9049277953318011   F   F   F
  5.9169860184297143 19.9267867656945512 10.9058466516279040   F   F   F
  3.9471876840861695  9.9727529659403906 10.9031056581194328   F   F   F
  3.9505884714981971 25.4657620267156481 14.8398086061615189   T   T   T
  5.9171005181493204 27.3010866487097701 14.8394197713475116   T   T   T
  5.9170095830427236 29.1740121592554829 12.8721698325412159   T   T   T
  3.9498505793430261 29.1740121592554829 14.8393288362409130   T   T   T
  5.9155760688744614 33.2485399544070290 12.8707214608902074   T   T   T
  3.9484022076920176 33.2485399544070290 14.8378953220726508   T   T   T
  5.9143406231273365 35.2697376767604638 14.8366598763255269   T   T   T
  5.9128036048306551 39.2581400281193424 14.8351228580288463   T   T   T
  3.9465020414986256 37.2560251494681225 14.8357571613945272   T   T   T
  5.9174893529633295 25.4657620267156481 12.8729077246963861   T   T   T
  5.9119948934594575 41.2446751602884447 12.8674185859836285   T   T   T
  3.9450993327854369 41.2446751602884447 14.8343141466576469   T   T   T
  5.9115383396313623 43.2390095872966356 14.8338575928295526   T   T   T
  5.9114871480789120 45.2269429584782543 12.8669172400000011   T   T   T
  3.9445979868018113 45.2269429584782543 14.8338064012771014   T   T   T
  5.9134379081963377 37.2560251494681225 12.8688212946968150   T   T   T
  5.9172496704377453 23.6136658158367787 14.8395689236359356   T   T   T
  5.9157735930753752 31.2580324415159332 14.8380928462735646   T   T   T
  5.9172465311417080 21.7602455226277733 12.8727174113303633   T   T   T
  3.9503981581321734 21.7602455226277733 14.8395657843398983   T   T   T
  5.9114040680468998  0.0147236685991293 14.8337233212450901   T   T   T
  5.9115057305829453  2.0035478457202061 12.8670318662755605   T   T   T
  3.9447126130773715  2.0035478457202061 14.8338249837811347   T   T   T
  5.9118653168365318  3.9917353127874153 14.8341845700347221   T   T   T
  5.9121367045592557  5.9854239445621573 12.8675838721392815   T   T   T
  3.9452646189410929  5.9854239445621573 14.8344559577574451   T   T   T
  5.9129846557171035  7.9715509568069889 14.8353039089152929   T   T   T
  5.9142450249212430  9.9727529659403906 12.8695069372843598   T   T   T
  5.9146846758226488 11.9603760433751276 14.8370039290208382   T   T   T
  5.9156594764938122 13.9830903295867515 12.8709614230169880   T   T   T
  3.9486421698187972 13.9830903295867515 14.8379787296920025   T   T   T
  5.9158094308677178 15.9728708924744431 14.8381286840659072   T   T   T
  5.9160671621336114 18.0553904567282935 12.8714773943086662   T   T   T
  3.9491581411104759 18.0553904567282935 14.8383864153318008   T   T   T
  5.9169860184297143 19.9267867656945512 14.8393052716279037   T   T   T
  3.9471876840861695  9.9727529659403906 14.8365642781194325   T   T   T
  7.8840470914981973 25.4657620267156481  6.9728913661615186   F   F   F
  9.8505591381493218 27.3010866487097701  6.9725025313475104   F   F   F
  7.8833091993430262 29.1740121592554829  6.9724115962409137   F   F   F
  7.8818608276920177 33.2485399544070290  6.9709780820726515   F   F   F
  9.8477992431273371 35.2697376767604638  6.9697426363255266   F   F   F
  9.8462622248306548 39.2581400281193424  6.9682056180288452   F   F   F
  7.8799606614986262 37.2560251494681225  6.9688399213945278   F   F   F
  7.8785579527854370 41.2446751602884447  6.9673969066576467   F   F   F
  9.8449969596313629 43.2390095872966356  6.9669403528295524   F   F   F
  7.8780566068018114 45.2269429584782543  6.9668891612771020   F   F   F
  9.8507082904377459 23.6136658158367787  6.9726516836359345   F   F   F
  9.8492322130753749 31.2580324415159332  6.9711756062735653   F   F   F
  7.8838567781321736 21.7602455226277733  6.9726485443398971   F   F   F
  9.8448626880469003  0.0147236685991293  6.9668060812450889   F   F   F
  7.8781712330773717  2.0035478457202061  6.9669077437811353   F   F   F
  9.8453239368365324  3.9917353127874153  6.9672673300347219   F   F   F
  7.8787232389410926  5.9854239445621573  6.9675387177574457   F   F   F
  9.8464432757171032  7.9715509568069889  6.9683866689152936   F   F   F
  9.8481432958226485 11.9603760433751276  6.9700866890208379   F   F   F
  7.8821007898187974 13.9830903295867515  6.9710614896920013   F   F   F
  9.8492680508677175 15.9728708924744431  6.9712114440659070   F   F   F
  7.8826167611104765 18.0553904567282935  6.9714691753318014   F   F   F
  9.8504446384297140 19.9267867656945512  6.9723880316279043   F   F   F
  7.8806463040861692  9.9727529659403906  6.9696470381194331   F   F   F
  7.8840470914981973 25.4657620267156481 10.9063499861615192   F   F   F
  9.8505591381493218 27.3010866487097701 10.9059611513475119   F   F   F
  9.8504682030427233 29.1740121592554829  8.9387112125412163   F   F   F
  7.8833091993430262 29.1740121592554829 10.9058702162409134   F   F   F
  9.8490346888744611 33.2485399544070290  8.9372628408902077   F   F   F
  7.8818608276920177 33.2485399544070290 10.9044367020726511   F   F   F
  9.8477992431273371 35.2697376767604638 10.9032012563255272   F   F   F
  9.8462622248306548 39.2581400281193424 10.9016642380288467   F   F   F
  7.8799606614986262 37.2560251494681225 10.9022985413945293   F   F   F
  9.8509479729633291 25.4657620267156481  8.9394491046963864   F   F   F
  9.8454535134594572 41.2446751602884447  8.9339599659836271   F   F   F
  7.8785579527854370 41.2446751602884447 10.9008555266576472   F   F   F
  9.8449969596313629 43.2390095872966356 10.9003989728295529   F   F   F
  9.8449457680789116 45.2269429584782543  8.9334586200000015   F   F   F
  7.8780566068018114 45.2269429584782543 10.9003477812771017   F   F   F
  9.8468965281963374 37.2560251494681225  8.9353626746968153   F   F   F
  9.8507082904377459 23.6136658158367787 10.9061103036359341   F   F   F
  9.8492322130753749 31.2580324415159332 10.9046342262735649   F   F   F
  9.8507051511417085 21.7602455226277733  8.9392587913303636   F   F   F
  7.8838567781321736 21.7602455226277733 10.9061071643398968   F   F   F
  9.8448626880469003  0.0147236685991293 10.9002647012450886   F   F   F
  9.8449643505829449  2.0035478457202061  8.9335732462755608   F   F   F
  7.8781712330773717  2.0035478457202061 10.9003663637811350   F   F   F
  9.8453239368365324  3.9917353127874153 10.9007259500347224   F   F   F
  9.8455953245592553  5.9854239445621573  8.9341252521392818   F   F   F
  7.8787232389410926  5.9854239445621573 10.9009973377574454   F   F   F
  9.8464432757171032  7.9715509568069889 10.9018452889152933   F   F   F
  9.8477036449212427  9.9727529659403906  8.9360483172843601   F   F   F
  9.8481432958226485 11.9603760433751276 10.9035453090208385   F   F   F
  9.8491180964938128 13.9830903295867515  8.9375028030169865   F   F   F
  7.8821007898187974 13.9830903295867515 10.9045201096920010   F   F   F
  9.8492680508677175 15.9728708924744431 10.9046700640659076   F   F   F
  9.8495257821336111 18.0553904567282935  8.9380187743086665   F   F   F
  7.8826167611104765 18.0553904567282935 10.9049277953318011   F   F   F
  9.8504446384297140 19.9267867656945512 10.9058466516279040   F   F   F
  7.8806463040861692  9.9727529659403906 10.9031056581194328   F   F   F
  7.8840470914981973 25.4657620267156481 14.8398086061615189   T   T   T
  9.8505591381493218 27.3010866487097701 14.8394197713475116   T   T   T
  9.8504682030427233 29.1740121592554829 12.8721698325412159   T   T   T
  7.8833091993430262 29.1740121592554829 14.8393288362409130   T   T   T
  9.8490346888744611 33.2485399544070290 12.8707214608902074   T   T   T
  7.8818608276920177 33.2485399544070290 14.8378953220726508   T   T   T
  9.8477992431273371 35.2697376767604638 14.8366598763255269   T   T   T
  9.8462622248306548 39.2581400281193424 14.8351228580288463   T   T   T
  7.8799606614986262 37.2560251494681225 14.8357571613945272   T   T   T
  9.8509479729633291 25.4657620267156481 12.8729077246963861   T   T   T
  9.8454535134594572 41.2446751602884447 12.8674185859836285   T   T   T
  7.8785579527854370 41.2446751602884447 14.8343141466576469   T   T   T
  9.8449969596313629 43.2390095872966356 14.8338575928295526   T   T   T
  9.8449457680789116 45.2269429584782543 12.8669172400000011   T   T   T
  7.8780566068018114 45.2269429584782543 14.8338064012771014   T   T   T
  9.8468965281963374 37.2560251494681225 12.8688212946968150   T   T   T
  9.8507082904377459 23.6136658158367787 14.8395689236359356   T   T   T
  9.8492322130753749 31.2580324415159332 14.8380928462735646   T   T   T
  9.8507051511417085 21.7602455226277733 12.8727174113303633   T   T   T
  7.8838567781321736 21.7602455226277733 14.8395657843398983   T   T   T
  9.8448626880469003  0.0147236685991293 14.8337233212450901   T   T   T
  9.8449643505829449  2.0035478457202061 12.8670318662755605   T   T   T
  7.8781712330773717  2.0035478457202061 14.8338249837811347   T   T   T
  9.8453239368365324  3.9917353127874153 14.8341845700347221   T   T   T
  9.8455953245592553  5.9854239445621573 12.8675838721392815   T   T   T
  7.8787232389410926  5.9854239445621573 14.8344559577574451   T   T   T
  9.8464432757171032  7.9715509568069889 14.8353039089152929   T   T   T
  9.8477036449212427  9.9727529659403906 12.8695069372843598   T   T   T
  9.8481432958226485 11.9603760433751276 14.8370039290208382   T   T   T
  9.8491180964938128 13.9830903295867515 12.8709614230169880   T   T   T
  7.8821007898187974 13.9830903295867515 14.8379787296920025   T   T   T
  9.8492680508677175 15.9728708924744431 14.8381286840659072   T   T   T
  9.8495257821336111 18.0553904567282935 12.8714773943086662   T   T   T
  7.8826167611104765 18.0553904567282935 14.8383864153318008   T   T   T
  9.8504446384297140 19.9267867656945512 14.8393052716279037   T   T   T
  7.8806463040861692  9.9727529659403906 14.8365642781194325   T   T   T
  0.0142356064715691 35.3411908161024471  8.9365548596697586   F   F   F
  0.0119265767861398 43.2561846268613621  8.9342458299843308   F   F   F
  0.0125082186804871 39.2971651246124836  8.9348274718786769   F   F   F
  0.0160786724471782 31.4108191396398730  8.9383979256453685   F   F   F
  0.0116840975873491  0.0149388786454629  8.9340033507855381   F   F   F
  0.0149607526029895 11.8883181549572505  8.9372800058011794   F   F   F
  0.0129161133646734  7.9341923774898646  8.9352353665628641   F   F   F
  0.0117281100285419  3.9752940932482930  8.9340473632267319   F   F   F
  0.0158728307502000 15.8219979797695949  8.9381920839483904   F   F   F
  0.0142356064715691 35.3411908161024471 12.8700134796697583   T   T   T
  0.0119265767861398 43.2561846268613621 12.8677044499843305   T   T   T
  0.0125082186804871 39.2971651246124836 12.8682860918786766   T   T   T
  0.0160786724471782 31.4108191396398730 12.8718565456453682   T   T   T
  0.0116840975873491  0.0149388786454629 12.8674619707855378   T   T   T
  0.0149607526029895 11.8883181549572505 12.8707386258011791   T   T   T
  0.0129161133646734  7.9341923774898646 12.8686939865628638   T   T   T
  0.0117281100285419  3.9752940932482930 12.8675059832267316   T   T   T
  0.0158728307502000 15.8219979797695949 12.8716507039483901   T   T   T
  3.9476942264715693 35.3411908161024471  8.9365548596697586   F   F   F
  3.9453851967861397 43.2561846268613621  8.9342458299843308   F   F   F
  3.9459668386804871 39.2971651246124836  8.9348274718786769   F   F   F
  3.9495372924471783 31.4108191396398730  8.9383979256453685   F   F   F
  3.9451427175873492  0.0149388786454629  8.9340033507855381   F   F   F
  3.9484193726029897 11.8883181549572505  8.9372800058011794   F   F   F
  3.9463747333646735  7.9341923774898646  8.9352353665628641   F   F   F
  3.9451867300285421  3.9752940932482930  8.9340473632267319   F   F   F
  3.9493314507502002 15.8219979797695949  8.9381920839483904   F   F   F
  3.9476942264715693 35.3411908161024471 12.8700134796697583   T   T   T
  3.9453851967861397 43.2561846268613621 12.8677044499843305   T   T   T
  3.9459668386804871 39.2971651246124836 12.8682860918786766   T   T   T
  3.9495372924471783 31.4108191396398730 12.8718565456453682   T   T   T
  3.9451427175873492  0.0149388786454629 12.8674619707855378   T   T   T
  3.9484193726029897 11.8883181549572505 12.8707386258011791   T   T   T
  3.9463747333646735  7.9341923774898646 12.8686939865628638   T   T   T
  3.9451867300285421  3.9752940932482930 12.8675059832267316   T   T   T
  3.9493314507502002 15.8219979797695949 12.8716507039483901   T   T   T
  7.8811528464715694 35.3411908161024471  8.9365548596697586   F   F   F
  7.8788438167861399 43.2561846268613621  8.9342458299843308   F   F   F
  7.8794254586804877 39.2971651246124836  8.9348274718786769   F   F   F
  7.8829959124471785 31.4108191396398730  8.9383979256453685   F   F   F
  7.8786013375873489  0.0149388786454629  8.9340033507855381   F   F   F
  7.8818779926029894 11.8883181549572505  8.9372800058011794   F   F   F
  7.8798333533646741  7.9341923774898646  8.9352353665628641   F   F   F
  7.8786453500285418  3.9752940932482930  8.9340473632267319   F   F   F
  7.8827900707502003 15.8219979797695949  8.9381920839483904   F   F   F
  7.8811528464715694 35.3411908161024471 12.8700134796697583   T   T   T
  7.8788438167861399 43.2561846268613621 12.8677044499843305   T   T   T
  7.8794254586804877 39.2971651246124836 12.8682860918786766   T   T   T
  7.8829959124471785 31.4108191396398730 12.8718565456453682   T   T   T
  7.8786013375873489  0.0149388786454629 12.8674619707855378   T   T   T
  7.8818779926029894 11.8883181549572505 12.8707386258011791   T   T   T
  7.8798333533646741  7.9341923774898646 12.8686939865628638   T   T   T
  7.8786453500285418  3.9752940932482930 12.8675059832267316   T   T   T
  7.8827900707502003 15.8219979797695949 12.8716507039483901   T   T   T
  1.9777249709000249 41.2685947877540471  6.9665856040982153   F   F   F
  1.9774503893182389  1.9973907448208930  6.9663110225164289   F   F   F
  1.9775154110223481  5.9621993293055606  6.9663760442205378   F   F   F
  1.9799187709258035  9.9281385146798549  6.9687794041239934   F   F   F
  1.9814826727314423 13.9053146638953820  6.9703433059296316   F   F   F
  1.9818602842614241 17.9087243276626822  6.9707209174596141   F   F   F
  1.9827430174545160 29.3212113316899661  6.9716036506527059   F   F   F
  1.9811735635384753 33.3261930367666110  6.9700341967366652   F   F   F
  1.9790007073606513 37.3015083172752426  6.9678613405588408   F   F   F
  1.9775862257138221 45.2349444118546202  6.9664468589120121   F   F   F
  1.9777249709000249 41.2685947877540471 10.9000442240982149   F   F   F
  1.9774503893182389  1.9973907448208930 10.8997696425164285   F   F   F
  1.9775154110223481  5.9621993293055606 10.8998346642205384   F   F   F
  1.9799187709258035  9.9281385146798549 10.9022380241239922   F   F   F
  1.9814826727314423 13.9053146638953820 10.9038019259296313   F   F   F
  1.9818602842614241 17.9087243276626822 10.9041795374596138   F   F   F
  1.9827430174545160 29.3212113316899661 10.9050622706527065   F   F   F
  1.9811735635384753 33.3261930367666110 10.9034928167366658   F   F   F
  1.9790007073606513 37.3015083172752426 10.9013199605588404   F   F   F
  1.9775862257138221 45.2349444118546202 10.8999054789120127   F   F   F
  1.9777249709000249 41.2685947877540471 14.8335028440982146   T   T   T
  1.9774503893182389  1.9973907448208930 14.8332282625164282   T   T   T
  1.9775154110223481  5.9621993293055606 14.8332932842205381   T   T   T
  1.9799187709258035  9.9281385146798549 14.8356966441239937   T   T   T
  1.9814826727314423 13.9053146638953820 14.8372605459296327   T   T   T
  1.9818602842614241 17.9087243276626822 14.8376381574596135   T   T   T
  1.9827430174545160 29.3212113316899661 14.8385208906527062   T   T   T
  1.9811735635384753 33.3261930367666110 14.8369514367366655   T   T   T