 C  H  O Rh 
 1.0000000000000000
    20.0716439009696401   -0.0000000000008153    0.0000000000000000
    -3.8612252995483374   19.6967466367792383    0.0000000000000000
     0.0000000000000000    0.0000000000000000   31.9392856444035083
 C   H   O   Rh 
   1   4 320 160
Selective dynamics
Cartesian
  9.3471186482126569  8.9282657241632712 23.3717426099999983   T   T   T
  8.7475638361150470  8.1948896936377551 22.7800355900000007   T   T   T
  8.6157519796260580  9.4929352630036092 23.9610937399999990   T   T   T
 10.0112846050009807  8.3159588758543137 23.9934084299999988   T   T   T
  9.9879061657042332  9.6716080297598666 22.8585086000000004   T   T   T
  8.9814986473197038 15.7908025985571285 14.4209155800000008   F   F   F
 10.9600979325312231 15.7545605841253433 16.3707255099999998   T   T   T
 10.9744653967072807 15.7731312834905850 18.8343729800000013   T   T   T
  8.5230986179403949 15.2336994077788930 17.6356031299999998   T   T   T
 11.0104152768688408 18.2553767865728602 17.6238703100000009   T   T   T
  8.9353335146092903 13.3024190694684563 19.5973872699999987   T   T   T
  8.9391926390871710 13.2993210934021775 22.0554045499999987   T   T   T
  5.6238227681419142 -0.4902498053580295 19.5960561899999988   T   T   T
 10.5369603679562100 17.6804253224171468 20.9100681600000016   T   T   T
  8.9935114931632647 15.8056213227087277 20.9041406499999987   T   T   T
  8.5678835741653643 17.7270719769608220 10.0000000000000000   F   F   F
  6.1279661805993593 17.2012480315575260 11.2322160499999999   F   F   F
 10.9611704942171642 15.7573973132828584 12.4644321100000006   F   F   F
  6.5415812473994306 15.2649786454332919 13.1886995299999992   F   F   F
  6.5415812473994306 15.2649786454332919 15.6531316300000007   F   F   F
  6.5882117272679608 17.7604772622352591 14.4209155800000008   F   F   F
  8.5656129295379753 17.7242206492949848 16.3697804600000012   T   T   T
  8.5825340761288018 17.7448212479574963 18.8313306999999988   T   T   T
 10.5475554274173362 17.6936666994074834 14.4209155800000008   F   F   F
  8.9348681674510573 13.2953039817549268 15.6531316300000007   F   F   F
 13.3078269407548024 11.2922240405237098 11.2322160499999999   F   F   F
  8.5678835741653643 17.7270719769608220 12.4644321100000006   F   F   F
  8.8662709961067030 10.8039027037691859 20.8817696400000017   T   T   T
  9.3018527607365566  8.8635359865494721 10.0000000000000000   F   F   F
  9.3018527607365566  8.8635359865494721 12.4644321100000006   F   F   F
  6.8619353671702337  8.3377120411464851 11.2322160499999999   F   F   F
  9.3484832406055354 11.3590346033521215 11.2322160499999999   F   F   F
  7.2755504403247926  6.4014426627435341 13.1886995299999992   F   F   F
  7.2755504403247926  6.4014426627435341 15.6531316300000007   F   F   F
  8.8882376939366559 10.7998053726743599 14.4209155800000008   F   F   F
  8.9348681674510573 13.2953039817549268 13.1886995299999992   F   F   F
  7.3221809138389951  8.8969412718244527 14.4209155800000008   F   F   F
  9.3107216235944676  8.8748907727560074 18.8680990599999987   T   T   T
  6.8647481229394147  8.3398687432067753 17.6391988499999997   T   T   T
  9.3526542912822794 11.3614026337003047 17.6332841800000004   T   T   T
 15.3741994411751399 16.2417030059548253 19.5963997499999998   T   T   T
  7.3003684469984638  6.4309468081315124 22.0530419000000002   T   T   T
 15.7477443343207231 11.8180479859271372 10.0000000000000000   F   F   F
 11.6951396807882269  6.8938613228718566 10.0000000000000000   F   F   F
  6.1297347671779674 17.2035701478848289 17.6352659500000009   T   T   T
  9.3011280727275985  8.8633859638144337 16.3801738099999987   T   T   T
  6.5419327968766057 15.2647522629807391 19.5974095599999991   T   T   T
 15.7943748141893963 14.3135466027293887 11.2322160499999999   F   F   F
  6.6010608439182317 17.7746611592642765 20.9036678999999985   T   T   T
 13.3672317032350456 13.8031089338268629 18.8367712999999988   T   T   T
 10.9168100679304860 13.2653565477394508 17.6381304800000009   T   T   T
 13.4029913828901428 16.2854236939379184 17.6276456800000005   T   T   T
 11.3336870788672321 11.3327100881368281 19.5984899500000012   T   T   T
 11.3178933760058449 11.3118086604238464 22.0554701699999995   T   T   T
 12.9330203899389655 15.7112293920930206 20.9156728299999983   T   T   T
 11.3868716854458363 13.8339193448804210 20.9065654700000003   T   T   T
 16.4883460244395792  2.9479666487677214 16.3725199299999993   T   T   T
 16.0540094740204538  4.8776688807294377 20.9065077399999986   T   T   T
 14.4595333740532332  0.4964721023884451 22.0515567600000004   T   T   T
 16.5307421558241252  5.4528596499134139 17.6252832499999990   T   T   T
 14.0445571955210440  2.4314015432398204 17.6335721599999999   T   T   T
 16.4928287919513004  2.9823681547635843 18.8252868999999983   T   T   T
 16.0680984540919667  4.8907813816401919 14.4209155800000008   F   F   F
 14.5020416739944213  2.9879172807908745 14.4209155800000008   F   F   F
 14.0884266008399237  4.9241866591936514 10.0000000000000000   F   F   F
 14.4554112004800750  0.4924186717096930 15.6531316300000007   F   F   F
 13.3528831416368661 13.7858794683717782 16.3711104700000014   T   T   T
 11.3747855673715303 13.8211279348796516 14.4209155800000008   F   F   F
 12.9408423474689478 15.7239920357292391 14.4209155800000008   F   F   F
 11.3281550875025179 11.3256293180775849 13.1886995299999992   F   F   F
  9.7385291736853681  6.9228963374774715 20.8607099900000001   T   T   T
 11.0078009740856224 18.2528959300852769 11.2322160499999999   F   F   F
 13.3544574142690120 13.7877226496052216 10.0000000000000000   F   F   F
 13.3544574142690120 13.7877226496052216 12.4644321100000006   F   F   F
 13.7214420075544243  9.3559546543994010 13.1886995299999992   F   F   F
 13.7214420075544243  9.3559546543994010 15.6531316300000007   F   F   F
 15.3341292675211847 13.7543173720514531 14.4209155800000008   F   F   F
 13.7680724874232325 11.8514532712014038 14.4209155800000008   F   F   F
  6.5439171752623846 15.2684004656181003 22.0554026100000016   T   T   T
 15.7452115358513325 11.8164710396564701 16.3706381000000007   T   T   T
 15.7961575633363580 14.3160128270169338 17.6272489800000010   T   T   T
  4.1558843949995312 17.2368221754640167 19.5960561899999988   T   T   T
 13.7242492843022514  9.3598580962627871 22.0538916100000009   T   T   T
 15.3238911100379838 13.7436335690260094 20.9154889699999984   T   T   T
 13.7791299956778222 11.8651236436658891 20.9054475199999992   T   T   T
 10.9611704942171642 15.7573973132828584 10.0000000000000000   F   F   F
 10.9145400207033472 13.2618987042018084 11.2322160499999999   F   F   F
 13.4010878941377953 16.2832212664070148 11.2322160499999999   F   F   F
 13.3107376778858697 11.2952746796682106 17.6378374499999993   T   T   T
 14.4554112004800750  0.4924186717096930 13.1886995299999992   F   F   F
  0.0997337140929400 12.3153583165842271 22.0510556899999983   T   T   T
  9.2564547438530020  6.3713947341616368 17.6385188100000008   T   T   T
  2.1141026233603011 14.7780883172071391 16.3720998500000015   T   T   T
 -0.3166929363541140 14.2500933888732675 17.6385188100000008   T   T   T
  2.1699061486326343 17.2727915170237303 17.6327339999999992   T   T   T
  0.1653814934782503 14.8015949921889387 20.8607099900000001   T   T   T
 -0.7068766841005676 18.6826013584817225 20.8817696400000017   T   T   T
 -0.2712949194706908 16.7422346412619731 10.0000000000000000   F   F   F
 -0.2712949194706908 16.7422346412619731 12.4644321100000006   F   F   F
 -2.7112123130365173 16.2164106958581478 11.2322160499999999   F   F   F
  0.1423201536838512 14.8059652628583613 14.4209155800000008   F   F   F
 -2.2975972398824016 14.2801413174558895 13.1886995299999992   F   F   F
 -0.6849099862703909 18.6785040273854328 14.4209155800000008   F   F   F
 -2.2509667663680375 16.7756399265361829 14.4209155800000008   F   F   F
 -0.2720196074792085 16.7420846185262171 16.3801738099999987   T   T   T
 -0.2624260566125614 16.7535894274679364 18.8680990599999987   T   T   T
 -2.7083995495467992 16.2185673915642639 17.6391988499999997   T   T   T
 -2.2727792332090520 14.3096454628434984 22.0530419000000002   T   T   T
  2.1219920005811339 14.7725599775838496 10.0000000000000000   F   F   F
  4.1482943273473785 17.2346533091114154 13.1886995299999992   F   F   F
 -2.2975972398824016 14.2801413174558895 15.6531316300000007   F   F   F
  1.7083769337810981 16.7088293637081051 14.4209155800000008   F   F   F
  0.0956896801693201 12.3104666537774783 15.6531316300000007   F   F   F
  0.0956896801693201 12.3104666537774783 13.1886995299999992   F   F   F
 12.9915950009104382 18.2235440832102675 22.0515567600000004   T   T   T
 12.9874728209833208 18.2194906448103850 15.6531316300000007   F   F   F
 12.9874728209833208 18.2194906448103850 13.1886995299999992   F   F   F
 15.4187630005813983 18.7669263282561403 20.8621398199999994   T   T   T
 14.9671446678805609 18.1860853595353227 11.2322160499999999   F   F   F
 15.3807597410350496 16.2498159811323433 13.1886995299999992   F   F   F
 15.3807597410350496 16.2498159811323433 15.6531316300000007   F   F   F
 15.4273902209041331 18.7453145979354048 14.4209155800000008   F   F   F
 14.9699574236497526 18.1882420615950124 17.6391988499999997   T   T   T
 15.4055777477083140 16.2793201265203926 22.0530419000000002   T   T   T
 -2.6579493359752249 18.7053639581916471 16.3725199299999993   T   T   T
 -2.6534665684627434 18.7397654641871227 18.8252868999999983   T   T   T
 -2.6645818395222900 18.7119093049392333 10.0000000000000000   F   F   F
 -2.6645818395222900 18.7119093049392333 12.4644321100000006   F   F   F
 -2.2595939866904509 16.7972516568572416 20.8621398199999994   T   T   T
  1.7171412991508532 16.6881215466372730 20.8781034500000011   T   T   T
  2.1219920005811339 14.7725599775838496 12.4644321100000006   F   F   F
 -0.3179253929848489 14.2467360321809693 11.2322160499999999   F   F   F
  2.1686224804496455 17.2680585943858347 11.2322160499999999   F   F   F
  4.1482943273473785 17.2346533091114154 15.6531316300000007   F   F   F
  4.1511016040950501 17.2385567509744995 22.0538916100000009   T   T   T
  6.9151983442324125 10.8266653034794018 16.3725199299999993   T   T   T
  6.4808617938129363 12.7563675354413952 20.9065077399999986   T   T   T
  4.5640989879448739 15.3013487869092160 17.6247783399999989   T   T   T
  2.5491987778324017 12.8493537312023705 20.8850384499999997   T   T   T
  4.0914717550788557 14.7230178594102412 20.9038396199999994   T   T   T
  2.4930611551655932 10.3457637952384367 22.0506131100000005   T   T   T
  6.9085658406846653 10.8332106502275991 10.0000000000000000   F   F   F
  6.9085658406846653 10.8332106502275991 12.4644321100000006   F   F   F
  8.5212531006513803 15.2315733678797187 11.2322160499999999   F   F   F
  7.3135536935164192  8.9185530021457815 20.8621398199999994   T   T   T
 11.2902889793581220  8.8094228919254149 20.8781034500000011   T   T   T
 11.6951396807882269  6.8938613228718566 12.4644321100000006   F   F   F
  9.2552222872218213  6.3680373774691148 11.2322160499999999   F   F   F
 11.7417701606573122  9.3893599396742999 11.2322160499999999   F   F   F
 15.7477443343207231 11.8180479859271372 12.4644321100000006   F   F   F
  9.6688373603766458  4.4317679990656593 13.1886995299999992   F   F   F
  9.6688373603766458  4.4317679990656593 15.6531316300000007   F   F   F
 11.2815246139885090  8.8301307089960162 14.4209155800000008   F   F   F
  9.7154678338910028  6.9272666081468302 14.4209155800000008   F   F   F
 11.6872503035672715  6.8993896624958424 16.3720998500000015   T   T   T
  2.1450013367241869 14.7868729600369768 18.8236960300000007   T   T   T
  2.0775819556195501 12.2801118210735076 17.6329187300000001   T   T   T
 11.7430538288398196  9.3940928623117976 17.6327339999999992   T   T   T
  4.5317679334981715 12.8230482733250568 18.8219501399999984   T   T   T
  2.5356070737353331 12.8362905991802485 14.4209155800000008   F   F   F
  4.8863856938458623  8.3751707571007366 22.0515567600000004   T   T   T
 12.9792397145246241 18.2147382626802035 19.5940237400000008   T   T   T
  6.9575944756169141 13.3315583046255135 17.6252832499999990   T   T   T
  4.4714095153136135 10.3101001979520746 17.6335721599999999   T   T   T
  6.9196811117440866 10.8610668094758296 18.8252868999999983   T   T   T
  6.4949507738848737 12.7694800363520216 14.4209155800000008   F   F   F
  4.9288939937872689 10.8666159355025691 14.4209155800000008   F   F   F
  4.5152789206327499 12.8028853139059287 10.0000000000000000   F   F   F
  4.8822635202731304  8.3711173264214338 15.6531316300000007   F   F   F
  4.8822635202731304  8.3711173264214338 13.1886995299999992   F   F   F
  6.9551963205536502 13.3287092670300282 11.2322160499999999   F   F   F
  4.4686484471185901 10.3073867048250243 11.2322160499999999   F   F   F
  4.9390212915480891 10.8825044615699653 20.8864066599999987   T   T   T
  4.5152789206327499 12.8028853139059287 12.4644321100000006   F   F   F
  2.0753615270667360 12.2770613685025367 11.2322160499999999   F   F   F
  4.5619094005018486 15.2983839307077965 11.2322160499999999   F   F   F
  2.4889766002209761 10.3407919900999126 13.1886995299999992   F   F   F
  2.4889766002209761 10.3407919900999126 15.6531316300000007   F   F   F
  4.1016638538327550 14.7391547000304399 14.4209155800000008   F   F   F
  4.5135119703950677 12.8005421003320379 16.3646055100000005   T   T   T
 16.5283440007608107  5.4500106123183194 11.2322160499999999   F   F   F
 11.3281550875025179 11.3256293180775849 15.6531316300000007   F   F   F
 14.5121689717551838  3.0038058068580398 20.8864066599999987   T   T   T
  0.8339833383771094  3.4509477750130380 22.0554045499999987   T   T   T
  2.4317510672458607  7.8320520040287391 20.9100681600000016   T   T   T
  0.8883021924530645  5.9572480043203768 20.9041406499999987   T   T   T
  0.4626742734547946  7.8786986585721444 10.0000000000000000   F   F   F
 -1.9772431264657087  7.3528747054474692 11.2322160499999999   F   F   F
  2.8559611935067100  5.9090239948939463 12.4644321100000006   F   F   F
  0.5093047469693559 10.3741972676528995 11.2322160499999999   F   F   F
 -1.5636280533113762  5.4166053270446177 13.1886995299999992   F   F   F
 -1.5636280533113762  5.4166053270446177 15.6531316300000007   F   F   F
  0.8301242075443263  3.4540457433585807 19.5973872699999987   T   T   T
  0.0490592003002135  9.8149680369750740 14.4209155800000008   F   F   F
  0.4604036224728389  7.8758473231850097 16.3697804600000012   T   T   T
 14.0417961273253589  2.4286880501129566 11.2322160499999999   F   F   F
 -1.9754745335326778  7.3551968294965846 17.6352659500000009   T   T   T
  0.5114393128847325 10.3772000114408023 17.6235329400000005   T   T   T
 -1.5632765101884409  5.4163789368704158 19.5974095599999991   T   T   T
 -1.5612921318023396  5.4200271395077024 22.0554026100000016   T   T   T
  0.0388131592185879  9.8013652983684345 20.9108063500000014   T   T   T
 -1.5041484567924179  7.9262878408753110 20.9036678999999985   T   T   T
  7.6891655071245850  4.4651732766192112 11.2322160499999999   F   F   F
 -1.5169975797972715  7.9121039361259164 14.4209155800000008   F   F   F
  2.9025916670211842  8.4045226039752237 11.2322160499999999   F   F   F
  2.9052059698039585  8.4070034604626720 17.6238703100000009   T   T   T
  2.8692560959965281  5.9247579651019997 18.8343729800000013   T   T   T
 -1.1500129801567223  3.4803359486411232 11.2322160499999999   F   F   F
  2.4871503612029535 10.3381797623601344 19.5936744900000015   T   T   T
  0.4160437935860948  5.3832000417696868 11.2322160499999999   F   F   F
  3.6365608599467176 -0.4590133787145874 11.2322160499999999   F   F   F
  7.6425350336103257  1.9696746675382037 12.4644321100000006   F   F   F
  3.6378445217750945 -0.4542804637981188 17.6327339999999992   T   T   T
  0.0926240504814544 12.3009104057488052 19.5935172999999985   T   T   T
  0.7610616890418171  0.9555293776591700 20.8817696400000017   T   T   T
  1.2432739398949142  1.5106612849632146 11.2322160499999999   F   F   F
  0.4178893172298643  5.3853260893904604 17.6356031299999998   T   T   T
  0.7830283868715693  0.9514320465644861 14.4209155800000008   F   F   F
  7.2689901341100249  6.3933296798453263 19.5963997499999998   T   T   T
  7.6425350336103257  1.9696746675382037 10.0000000000000000   F   F   F
  5.2026176336896182  1.4438507144138359 11.2322160499999999   F   F   F
  0.4626742734547946  7.8786986585721444 12.4644321100000006   F   F   F
  0.8296588667404432  3.4469306633666044 13.1886995299999992   F   F   F
  0.8296588667404432  3.4469306633666044 15.6531316300000007   F   F   F
  2.4423461203521342  7.8452933732974017 14.4209155800000008   F   F   F
  0.8762893402547327  5.9424292724475727 14.4209155800000008   F   F   F
  2.8548886318212627  5.9061872657370742 16.3707255099999998   T   T   T
  1.2474449905722960  1.5130293153112149 17.6332841800000004   T   T   T
  5.2492481135584379  3.9393493312158974 10.0000000000000000   F   F   F
  5.2492481135584379  3.9393493312158974 12.4644321100000006   F   F   F
  5.6162327068440270 -0.4924186639893708 13.1886995299999992   F   F   F
 14.4471780876669502  0.4876662818578286 19.5940237400000008   T   T   T
 12.0602980414101371  2.4594811076479797 19.5936744900000015   T   T   T
  9.6657717306889239  4.4222117510368264 19.5935172999999985   T   T   T
 10.0358219536620688  0.0000000038602188 12.4644321100000006   F   F   F
 12.0154938005595167 -0.0334052814147565 14.4209155800000008   F   F   F
 12.4783536500113783  0.5283048057508921 17.6238703100000009   T   T   T
 12.0048987474530247 -0.0466466506831207 20.9100681600000016   T   T   T
 10.0358219536620688  0.0000000038602188 10.0000000000000000   F   F   F
  7.5959045537413772 -0.5258239492642005 11.2322160499999999   F   F   F
  3.2816623783805525  3.9855460187707017 20.9065654700000003   T   T   T
 10.0824524271763263  2.4954986129409544 11.2322160499999999   F   F   F
  8.0561501004099352  0.0334052814137138 14.4209155800000008   F   F   F
 10.0335513026801095 -0.0028513315268750 16.3697804600000012   T   T   T
 10.0504724479039584  0.0177492812118558 18.8313306999999988   T   T   T
  7.5976731466745697 -0.5235018252154049 17.6352659500000009   T   T   T
 10.0845869930921470  2.4985013567288803 17.6235329400000005   T   T   T
  9.6119608317043372  1.9226666500109761 20.9108063500000014   T   T   T
  8.0689992234147834  0.0475891861635720 20.9036678999999985   T   T   T
 12.4757393472281315  0.5258239492632111 11.2322160499999999   F   F   F
  7.6567598201015921  1.9871075111714003 18.8341944000000012   T   T   T
  9.6222068805078145  1.9362693822633439 14.4209155800000008   F   F   F
  4.8278110892282990  5.8628560737048012 20.9156728299999983   T   T   T
  3.2126840752952273  1.4634353420350177 22.0554701699999995   T   T   T
  3.2284777781569547  1.4843367697484968 19.5984899500000012   T   T   T
  5.6162327068440270 -0.4924186639893708 15.6531316300000007   F   F   F
  7.2289199604558743  3.9059440459414461 14.4209155800000008   F   F   F
  5.6628631803583760  2.0030799450917804 14.4209155800000008   F   F   F
  7.6400022351411110  1.9680977212674726 16.3706381000000007   T   T   T
 -1.9163878601055870  9.8658061658833063 18.8341944000000012   T   T   T
  5.2055283708209208  1.4469013535581183 17.6378374499999993   T   T   T
  7.6909482626258239  4.4676395086281566 17.6272489800000010   T   T   T
  5.6190399772371489 -0.4885152298472537 22.0538916100000009   T   T   T
  7.2186818093274461  3.8952602506372962 20.9154889699999984   T   T   T
  5.6739206886128732  2.0167503175559318 20.9054475199999992   T   T   T
  2.8559611935067100  5.9090239948939463 10.0000000000000000   F   F   F
  2.8093307136378165  3.4135253780916663 11.2322160499999999   F   F   F
  5.2958785870726395  6.4348479402972423 11.2322160499999999   F   F   F
  3.2229457867922084  1.4772559996888006 13.1886995299999992   F   F   F
  3.2229457867922084  1.4772559996888006 15.6531316300000007   F   F   F
  4.8356330404041232  5.8756187096187880 14.4209155800000008   F   F   F
  3.2695762603066569  3.9727546087694066 14.4209155800000008   F   F   F
  5.2476738409264119  3.9375061499832746 16.3711104700000014   T   T   T
  5.2620223961702006  3.9547356077167777 18.8367712999999988   T   T   T
  2.8116007608658986  3.4169832216294189 17.6381304800000009   T   T   T
  5.2977820821798254  6.4370503755489459 17.6276456800000005   T   T   T
 -1.1476148314482053  3.4831849785152080 17.6252832499999990   T   T   T
  4.8740304074597454  8.3663649365695463 19.5940237400000008   T   T   T
  0.4773247754180669  7.8964479295686942 18.8313306999999988   T   T   T
  9.6728813943002052  4.4366596618720848 22.0510556899999983   T   T   T
 -1.9306126465967157  9.8483733222495609 10.0000000000000000   F   F   F
 -2.3041575460969721 14.2720283345568930 19.5963997499999998   T   T   T
 -1.9306126465967157  9.8483733222495609 12.4644321100000006   F   F   F
 13.7290320752069590  9.3581235207518922 19.5960561899999988   T   T   T
 16.1742085241254756  9.8959625045523474 20.9036678999999985   T   T   T
 16.1170648554699696  7.3897018109059900 22.0554026100000016   T   T   T
 16.1150804770835165  7.3860536082687389 19.5974095599999991   T   T   T
 15.7028824473851962  9.3248714931733794 17.6352659500000009   T   T   T
 16.1613594074753664  9.8817786075237599 14.4209155800000008   F   F   F
 16.1147289276060022  7.3862799907211851 15.6531316300000007   F   F   F
 16.1147289276060022  7.3862799907211851 13.1886995299999992   F   F   F
 15.7011138608066076  9.3225493768459664 11.2322160499999999   F   F   F
 16.4378958031466595  0.4611700884948942 17.6391988499999997   T   T   T
 18.8838693038018945  0.9961921180441227 18.8680990599999987   T   T   T
 18.8742757529350058  0.9846873091028350 16.3801738099999987   T   T   T
 16.8953285940459779  1.0182426171127528 14.4209155800000008   F   F   F
 18.4613853741437737  2.9211067179625907 14.4209155800000008   F   F   F
 16.4350830473772191  0.4590133864348189 11.2322160499999999   F   F   F
 18.8750004409434737  0.9848373318380528 12.4644321100000006   F   F   F
 18.8750004409434737  0.9848373318380528 10.0000000000000000   F   F   F
 18.4394186763142827  2.9252040490575268 20.8817696400000017   T   T   T
 11.7181490169313456  6.9081743053251969 18.8236960300000007   T   T   T
 16.8867013737238096  1.0398543474342219 20.8621398199999994   T   T   T
 16.4817135208918266  2.9545119955160857 12.4644321100000006   F   F   F
 16.4817135208918266  2.9545119955160857 10.0000000000000000   F   F   F
 12.0662088353724357  2.4670651405265929 22.0506131100000005   T   T   T
 13.6646194352861450  6.8443192046987065 20.9038396199999994   T   T   T
 12.1223464580394147  4.9706550764907789 20.8850384499999997   T   T   T
 14.1372466681520379  7.4226501321967611 17.6247783399999989   T   T   T
 -1.8839821730826323 12.3438719313310976 11.2322160499999999   F   F   F
 -2.3442277197511618 11.7846427006528600 14.4209155800000008   F   F   F
 15.7619691271664628 11.8354808372812315 18.8341944000000012   T   T   T
 -1.8821994175812158 12.3463381633399933 17.6272489800000010   T   T   T
 14.0884266008399237  4.9241866591936514 12.4644321100000006   F   F   F
 11.6485092072738325  4.3983627137910091 11.2322160499999999   F   F   F
 14.1350570807087657  7.4196852759964074 11.2322160499999999   F   F   F
 12.0621242804283924  2.4620933353877561 13.1886995299999992   F   F   F
 12.0621242804283924  2.4620933353877561 15.6531316300000007   F   F   F
 -1.9331454450660832  9.8467963759793840 16.3706381000000007   T   T   T
 12.1087547539424349  4.9575919444682128 14.4209155800000008   F   F   F
 14.0866596506020958  4.9218434456204889 16.3646055100000005   T   T   T
 14.1049156137052965  4.9443496186132343 18.8219501399999984   T   T   T
 11.6507296358268206  4.4014131663612268 17.6329187300000001   T   T   T
 13.6748115340402911  6.8604560453181485 14.4209155800000008   F   F   F
 -2.3544658708797765 11.7739589053494242 20.9154889699999984   T   T   T
  3.3202783846437542 13.7901138487613011 17.5942897400000007   T   T   T
  4.5150205885673200 12.8024585606150474 20.7359940700000003   T   T   T
 14.4554112004800750  0.4924186717096930 11.2322160499999999   F   F   F
 15.6507655188074537 -0.4896223173651997 20.8510010000000001   T   T   T
 18.8746836911647584  0.9841799341314594 20.8087133100000017   T   T   T
  1.2938304058589107 11.3248562564115005 20.8520120899999988   T   T   T
 17.6861401131892784  1.9681513767278247 17.6174500599999995   T   T   T
 15.6520546605062378 -0.4924186601291947 14.4209155800000008   F   F   F
 18.8750004409434737  0.9848373318380528 14.4209155800000008   F   F   F
 17.6783569809177550  1.9696746636767593 11.2322160499999999   F   F   F
 11.6973300295512956  6.8924321392316550 20.7266715200000000   T   T   T
 14.4571603209389306  0.4942785736564090 17.6316339400000004   T   T   T
 13.7235132656236711  9.3584425111538856 17.6329219600000009   T   T   T
  5.6183039649132551 -0.4899308072347637 17.6329219600000009   T   T   T
 10.0364081475221774 -0.0001970674376217 20.7407661400000016   T   T   T
  2.4909328726359359 10.3430059932667717 17.6311269800000012   T   T   T
  3.6856200602470652  9.3559546582608455 14.4209155800000008   F   F   F
  5.7138980969919997 11.8201529675723727 17.5949249700000010   T   T   T
 12.0640805528429507  2.4643073385551180 17.6311269800000012   T   T   T
  6.9066806878987466 10.8349629385277346 20.7288419399999988   T   T   T
  3.6849224974669106  9.3570243030022091 20.8524164300000017   T   T   T
  2.4889766002209761 10.3407919900999126 11.2322160499999999   F   F   F
  4.5152789206327499 12.8028853139059287 14.4209155800000008   F   F   F
 15.7477443343207231 11.8180479859271372 14.4209155800000008   F   F   F
 10.8669780860663661  3.4461576016990954 20.8520120899999988   T   T   T
  1.2923331401953853 11.3256293219381945 14.4209155800000008   F   F   F
  6.9085658406846653 10.8332106502275991 14.4209155800000008   F   F   F
  3.3186354606067612 13.7877226457448572 11.2322160499999999   F   F   F
  8.4721939003508808  5.4166053309046589 14.4209155800000008   F   F   F
  8.8404067953296437  0.9868904190723242 17.6027680300000000   T   T   T
 14.0884266008399237  4.9241866591936514 14.4209155800000008   F   F   F
 14.0881682687744174  4.9237599059032320 20.7359940700000003   T   T   T
 15.2850700608659782  3.9393493273550426 11.2322160499999999   F   F   F
 10.8654808204024906  3.4469306672265780 14.4209155800000008   F   F   F
 12.8934260648509689  5.9114151940495070 17.5942897400000007   T   T   T
 10.0358219536620688  0.0000000038602188 14.4209155800000008   F   F   F
  0.8315810343809584  3.4494438286979872 17.6337339799999988   T   T   T
  7.6434153811965935  1.9700050146433394 20.7446568199999994   T   T   T
 -1.4679383794963741 17.7270719730998962 11.2322160499999999   F   F   F
 -0.2712949194706908 16.7422346412619731 14.4209155800000008   F   F   F
 -3.4942406999080386 15.2649786492944166 14.4209155800000008   F   F   F
 -2.2960528691163979 14.2821557151903598 17.6337380099999983   T   T   T
 -1.4601552472248684 17.7255486861520275 17.6174500599999995   T   T   T
 -0.2716116692493760 16.7415772435556960 20.8087133100000017   T   T   T
 -3.4955298416072047 15.2677749920588006 20.8510010000000001   T   T   T
  4.1482943273473785 17.2346533091114154 11.2322160499999999   F   F   F
 -2.6664669923080986 18.7136615932392090 20.7288419399999988   T   T   T
 -2.6645818395222900 18.7119093049392333 14.4209155800000008   F   F   F
 -1.1009537798562921 13.2953039856162540 14.4209155800000008   F   F   F
 12.9892219414422030 18.2213505467570087 17.6316339400000004   T   T   T
 15.3807597410350496 16.2498159811323433 11.2322160499999999   F   F   F
 14.1841162810092083 17.2346533129710551 14.4209155800000008   F   F   F
 15.3823041118013233 16.2518303788673144 17.6337380099999983   T   T   T
 -2.2975972398824016 14.2801413174558895 11.2322160499999999   F   F   F
  8.8391784936363589  0.9848373356991562 11.2322160499999999   F   F   F
 -1.0975075728011454 13.2942835381673881 20.8506769699999985   T   T   T
  0.0972303850236216 12.3125218082737113 17.6312654699999989   T   T   T
 14.9196146499446343  8.3703266539293857 20.8560465999999991   T   T   T
 16.9456160960399878 10.8352637374609202 17.6027680300000000   T   T   T
 16.1162650960047173  7.3880884548494130 17.6331817300000004   T   T   T
 14.9180854675805961  8.3711173225604050 14.4209155800000008   F   F   F
 16.9443877943466745 10.8332106540874982 11.2322160499999999   F   F   F
 17.3104929041593394  6.4025033076996927 20.8572097099999993   T   T   T
 17.3113723876322290  6.4014426588823312 14.4209155800000008   F   F   F
 16.1147289276060022  7.3862799907211851 11.2322160499999999   F   F   F
 15.7486246882613905 11.8183783407538243 20.7446568199999994   T   T   T
  2.9553111811272910 18.2178657661220953 20.8523728199999994   T   T   T
  2.9516508673214457 18.2194906409499993 14.4209155800000008   F   F   F
  0.0956896801693201 12.3104666537774783 11.2322160499999999   F   F   F
 13.7214420075544243  9.3559546543994010 11.2322160499999999   F   F   F
  0.9253485405549267 15.7573973094230375 11.2322160499999999   F   F   F
  2.1219920005811339 14.7725599775838496 14.4209155800000008   F   F   F
  0.9217512304601527 15.7652633716540436 17.6167985000000016   T   T   T
  5.7119223806586632 11.8180479820664317 11.2322160499999999   F   F   F
  4.8840126407318305  8.3729772283682138 17.6316339400000004   T   T   T
  6.0776178386000090  7.3890763373468431 20.8510010000000001   T   T   T
  2.8559611935067100  5.9090239948939463 14.4209155800000008   F   F   F
  4.4195892468181661  0.4924186678498348 14.4209155800000008   F   F   F
  6.4458915735843263  2.9545119993772460 11.2322160499999999   F   F   F
  0.0000000000000000  0.0000000000000000 11.2322160499999999   F   F   F
  0.0077831259171468 -0.0015232946702977 17.6174500599999995   T   T   T