Pt 
 1.0000000000000000
    10.6914545315405984    0.0000000000000000    0.0000000000000000
     5.3457272657702992    9.2590712277204137    0.0000000000000000
     0.0000000000000000    0.0000000000000000   21.5471520526103575
 Pt 
  64
Selective dynamics
Cartesian
  0.0000000000000000  0.0000000000000000  7.4999999999999991   F   F   F
  1.3364318164425750  2.3147678069301039  7.4999999999999991   F   F   F
  5.3457272657702983  4.6295356138602060  7.5000000000000000   F   F   F
  4.0092954493277242  2.3147678069301034  7.5000000000000000   F   F   F
  5.3457272657702983  3.0863570759068040  9.6823840175367852   F   F   F
  4.0092954493277242  0.7715892689767010  9.6823840175367852   F   F   F
  2.6728636328851483  3.0863570759068040  9.6823840175367852   F   F   F
  1.3364318164425735  0.7715892689767003  9.6823840175367870   F   F   F
  2.6728636328851474  1.5431785379534013 11.8647680350735705   T   T   T
  4.0092954493277224  3.8579463448835054 11.8647680350735705   T   T   T
  5.3457272657702966  1.5431785379534009 11.8647680350735705   T   T   T
  6.6821590822128716  3.8579463448835045 11.8647680350735705   T   T   T
  8.0185908986554448  4.6295356138602051 14.0471520526103575   T   T   T
  6.6821590822128707  2.3147678069301021 14.0471520526103575   T   T   T
  5.3457272657702974  4.6295356138602042 14.0471520526103575   T   T   T
  4.0092954493277233  2.3147678069301008 14.0471520526103575   T   T   T
  2.6728636328851496  4.6295356138602068  7.4999999999999991   F   F   F
  4.0092954493277251  6.9443034207903107  7.4999999999999991   F   F   F
  8.0185908986554484  9.2590712277204119  7.5000000000000000   F   F   F
  6.6821590822128734  6.9443034207903107  7.5000000000000000   F   F   F
  8.0185908986554484  7.7158926897670108  9.6823840175367852   F   F   F
  6.6821590822128734  5.4011248828369078  9.6823840175367852   F   F   F
  5.3457272657702983  7.7158926897670108  9.6823840175367852   F   F   F
  4.0092954493277233  5.4011248828369069  9.6823840175367870   F   F   F
  5.3457272657702966  6.1727141518136079 11.8647680350735705   T   T   T
  6.6821590822128716  8.4874819587437127 11.8647680350735705   T   T   T
  8.0185908986554466  6.1727141518136079 11.8647680350735705   T   T   T
  9.3550227150980216  8.4874819587437109 11.8647680350735705   T   T   T
 10.6914545315405949  9.2590712277204119 14.0471520526103575   T   T   T
  9.3550227150980199  6.9443034207903089 14.0471520526103575   T   T   T
  8.0185908986554466  9.2590712277204119 14.0471520526103575   T   T   T
  6.6821590822128734  6.9443034207903072 14.0471520526103575   T   T   T
  5.3457272657702992  0.0000000000000000  7.4999999999999991   F   F   F
  6.6821590822128742  2.3147678069301039  7.4999999999999991   F   F   F
 10.6914545315405967  4.6295356138602060  7.5000000000000000   F   F   F
  9.3550227150980234  2.3147678069301034  7.5000000000000000   F   F   F
 10.6914545315405967  3.0863570759068040  9.6823840175367852   F   F   F
  9.3550227150980234  0.7715892689767010  9.6823840175367852   F   F   F
  8.0185908986554466  3.0863570759068040  9.6823840175367852   F   F   F
  6.6821590822128725  0.7715892689767003  9.6823840175367870   F   F   F
  8.0185908986554466  1.5431785379534013 11.8647680350735705   T   T   T
  9.3550227150980216  3.8579463448835054 11.8647680350735705   T   T   T
 10.6914545315405967  1.5431785379534009 11.8647680350735705   T   T   T
 12.0278863479831699  3.8579463448835045 11.8647680350735705   T   T   T
 13.3643181644257432  4.6295356138602051 14.0471520526103575   T   T   T
 12.0278863479831699  2.3147678069301021 14.0471520526103575   T   T   T
 10.6914545315405967  4.6295356138602042 14.0471520526103575   T   T   T
  9.3550227150980234  2.3147678069301008 14.0471520526103575   T   T   T
  8.0185908986554484  4.6295356138602068  7.4999999999999991   F   F   F
  9.3550227150980234  6.9443034207903107  7.4999999999999991   F   F   F
 13.3643181644257467  9.2590712277204119  7.5000000000000000   F   F   F
 12.0278863479831735  6.9443034207903107  7.5000000000000000   F   F   F
 13.3643181644257467  7.7158926897670108  9.6823840175367852   F   F   F
 12.0278863479831735  5.4011248828369078  9.6823840175367852   F   F   F
 10.6914545315405967  7.7158926897670108  9.6823840175367852   F   F   F
  9.3550227150980216  5.4011248828369069  9.6823840175367870   F   F   F
 10.6914545315405967  6.1727141518136079 11.8647680350735705   T   T   T
 12.0278863479831699  8.4874819587437127 11.8647680350735705   T   T   T
 13.3643181644257449  6.1727141518136079 11.8647680350735705   T   T   T
 14.7007499808683200  8.4874819587437109 11.8647680350735705   T   T   T
 16.0371817973108932  9.2590712277204119 14.0471520526103575   T   T   T
 14.7007499808683200  6.9443034207903089 14.0471520526103575   T   T   T
 13.3643181644257467  9.2590712277204119 14.0471520526103575   T   T   T
 12.0278863479831717  6.9443034207903072 14.0471520526103575   T   T   T
