Ir 
 1.0000000000000000
     8.1505317708575156   -0.0092537690878478   -0.0000000000000018
     0.0092537690878558    8.1505317708575049   -0.0000000000000053
     0.0000000000000000    0.0000000000000000   24.6055000000000028
 Ir 
  48
Selective dynamics
Direct
  0.8888888888888897  0.9999999999999998  0.5390380199548881   T   T   T
  0.4444444444444455  0.3333333333333332  0.5910887132280723   T   T   T
  0.1666666666666676  0.4999999999999999  0.5650633665914802   T   T   T
  0.7222222222222217  0.5000000000000002  0.6171140598646644   T   T   T
  0.2777777777777762  0.4999999999999999  0.6691647531378486   T   T   T
  0.5555555555555549  0.3333333333333335  0.6951900997744407   T   T   T
  0.0000000000000000  0.3333333333333334  0.6431394065012564   T   T   T
  0.8888888888888897  0.6666666666666665  0.5390380199548881   T   T   T
  0.6666666666666679  0.6666666666666665  0.3308352468621514   F   F   F
  0.3888888888888882  0.8333333333333334  0.3048099002255593   F   F   F
  0.6111111111111123  0.5000000000000000  0.5130126733182960   T   T   T
  0.2222222222222215  0.6666666666666667  0.3828859401353356   F   F   F
  0.5000000000000011  0.8333333333333336  0.4089112867719277   F   F   F
  0.7777777777777781  0.6666666666666666  0.4349366334085197   F   F   F
  0.0555555555555565  0.8333333333333333  0.4609619800451119   F   F   F
  0.3333333333333335  0.6666666666666666  0.4869873266817039   F   F   F
  0.6111111111111123  0.8333333333333334  0.5130126733182960   T   T   T
  0.4444444444444455  0.6666666666666665  0.5910887132280723   T   T   T
  0.1666666666666676  0.8333333333333333  0.5650633665914802   T   T   T
  0.7222222222222217  0.8333333333333335  0.6171140598646644   T   T   T
  0.2777777777777762  0.8333333333333333  0.6691647531378485   T   T   T
  0.9444444444444458  0.8333333333333334  0.3568605934987434   F   F   F
  0.3333333333333335  0.3333333333333333  0.4869873266817039   F   F   F
  0.0555555555555565  0.5000000000000000  0.4609619800451119   F   F   F
  0.7777777777777781  0.3333333333333333  0.4349366334085197   F   F   F
  0.6666666666666679  0.9999999999999998  0.3308352468621514   F   F   F
  0.3888888888888882  0.1666666666666667  0.3048099002255593   F   F   F
  0.2222222222222215  0.0000000000000000  0.3828859401353356   F   F   F
  0.9444444444444458  0.1666666666666666  0.3568605934987434   F   F   F
  0.5000000000000011  0.1666666666666669  0.4089112867719277   F   F   F
  0.7777777777777781  0.0000000000000000  0.4349366334085197   F   F   F
  0.0555555555555565  0.1666666666666666  0.4609619800451119   F   F   F
  0.3333333333333335  0.9999999999999999  0.4869873266817039   F   F   F
  0.6111111111111123  0.1666666666666666  0.5130126733182960   T   T   T
  0.4444444444444455  0.9999999999999999  0.5910887132280723   T   T   T
  0.1666666666666676  0.1666666666666666  0.5650633665914802   T   T   T
  0.7222222222222217  0.1666666666666668  0.6171140598646644   T   T   T
  0.2777777777777762  0.1666666666666665  0.6691647531378485   T   T   T
  0.5555555555555549  0.0000000000000001  0.6951900997744406   T   T   T
  0.0000000000000000  0.0000000000000000  0.6431394065012564   T   T   T
  0.8888888888888897  0.3333333333333331  0.5390380199548881   T   T   T
  0.6666666666666679  0.3333333333333331  0.3308352468621514   F   F   F
  0.3888888888888882  0.5000000000000001  0.3048099002255593   F   F   F
  0.2222222222222215  0.3333333333333334  0.3828859401353356   F   F   F
  0.9444444444444458  0.5000000000000000  0.3568605934987434   F   F   F
  0.5000000000000011  0.5000000000000002  0.4089112867719277   F   F   F
  0.5555555555555549  0.6666666666666669  0.6951900997744406   T   T   T
  0.0000000000000000  0.6666666666666667  0.6431394065012564   T   T   T
