 C  H Ir  O 
 1.0000000000000000
    20.4216964365389018   -0.0000000000023821    0.0000000000000000
    -4.4133129922537595   19.9391161654688105    0.0000000000000000
     0.0000000000000000    0.0000000000000000   31.9392856444035083
 C   H   Ir  O  
   1   4 160 320
Selective dynamics
Cartesian
 11.8335783350676280  7.1154163639798274 23.2977733399999991   T   T   T
 11.0010691746643730  7.5533571439211595 23.8611011200000007   T   T   T
 12.3991846671416059  6.3787833450410947 23.8804701799999997   T   T   T
 11.2652529903425815  6.4176889435145004 22.5732746800000008   T   T   T
 12.5106347366204957  7.9173459056958340 22.9686173800000013   T   T   T
  7.5001585618681217 14.4300337359719553 20.8647367099999990   T   T   T
 16.9732894709331852 10.9665138958436312 11.2224002499999997   F   F   F
 11.2469731253537155 11.4649710772974540 11.2224021900000004   F   F   F
 14.9722415398066246  8.4741243724283581 14.4186790800000004   F   F   F
 14.4905339646901936 12.9624169308370778 17.6093819300000014   T   T   T
  9.7287732006633032  4.4884321806074414 17.6338828899999989   T   T   T
 12.4887405945882382 10.4680359908530018 14.4186790800000004   F   F   F
 14.4897885257144790 12.9604255142690210 11.2224002499999997   F   F   F
 14.9548127413599321  8.4495108638009082 20.8591954900000012   T   T   T
 13.2230230364348493 13.9310493571454597 20.7710963100000008   T   T   T
 16.9737809903745891 10.9686570705320481 17.6094407599999982   T   T   T
 15.7315220016980568 11.9634489822877494 14.4186810199999993   F   F   F
 12.0062875804959681 14.9543371326943575 11.2224002499999997   F   F   F
 12.2118432970962836  2.4938698584923937 17.6333187299999992   T   T   T
 15.7066463192657899 11.9360934163506460 20.7737129699999983   T   T   T
  7.2448744117645232  6.4817267292175540 17.6333099599999983   T   T   T
 12.0064558846484921 14.9555214206106886 17.6099882500000007   T   T   T
  9.9814863357948731 12.4376606516655901 20.8648019200000014   T   T   T
 12.7655680423873807 18.4436617425538074 11.2224021900000004   F   F   F
  9.5227866430754773 16.9482487448590078 11.2224002499999997   F   F   F
 10.7645201112616835 15.9512722191387848 14.4186810199999993   F   F   F
  7.5217387119489318 14.4558592214436512 14.4186790800000004   F   F   F
  4.7609317108471085  8.4749376404369539 17.6343160999999995   T   T   T
 10.7396643092382877 15.9239011151477197 20.7708297399999999   T   T   T
  8.2810191738408889 17.9451838313027565 14.4186810199999993   F   F   F
 10.0052396493695532 12.4619476092785728 14.4186790800000004   F   F   F
 12.2118791535388258  2.4923687936166043 11.2224021900000004   F   F   F
 13.2480210564798213 13.9573606007132280 14.4186810199999993   F   F   F
 -0.9644145009457965  8.9747454521094578 17.6094407599999982   T   T   T
 -2.2066734958826171  9.9695373560674287 14.4186810199999993   F   F   F
  0.2531257226328041  7.9484916943059662 20.7713231299999990   T   T   T
 -0.9649060266481602  8.9726022696231400 11.2224002499999997   F   F   F
  1.0158412347929637 11.4386673123605238 20.8580097900000005   T   T   T
 -1.4722733325628496 13.4360446245525065 20.8578320700000006   T   T   T
 -2.6891265099752548 14.4558384979081058 11.2224021900000004   F   F   F
 -3.9543859534226460 15.4290953855771935 20.8626666500000013   T   T   T
 -1.7243360983319587  5.4849430352856476 17.6361827700000013   T   T   T
 17.4557424772277159  6.4802127602633046 14.4186790800000004   F   F   F
 14.6949354839238211  0.4992911729965748 17.6343160999999995   T   T   T
 17.4341623349444923  6.4543872685311516 20.8647367099999990   T   T   T
 19.1527193780549538  0.9728139456392615 20.7526510699999989   T   T   T
 16.2139750157909326  7.4771478404475200 11.2224021900000004   F   F   F
 19.1799289673040541  0.9969350864419209 14.4186810199999993   F   F   F
 14.2129270846649742  4.9847583170321013 14.4186810199999993   F   F   F
 17.9381954913204069  1.9939116184227732 11.2224002499999997   F   F   F
 16.6713113989185864  2.9632267847218170 20.7613558800000000   T   T   T
 15.4541053256162044  3.9881648655576196 17.6010116699999983   T   T   T
 13.4536466149756482  1.4954337134326234 14.4186790800000004   F   F   F
 15.4546945461016989  3.9878232368481203 11.2224002499999997   F   F   F
 14.1916872669672909  4.9560804228965463 20.7530091100000007   T   T   T
 15.9371475601942656 -0.4984779049924004 14.4186790800000004   F   F   F
 17.9375080748682123  1.9945192920712618 17.6009159500000010   T   T   T
 16.6964280220856800  2.9908467048672858 14.4186810199999993   F   F   F
 12.4650150473094481 10.4480192801654272 20.8596134599999985   T   T   T
 -0.2056255647564136 12.4619268794823750 11.2224021900000004   F   F   F
 10.9701456775549087  3.4893453255976130 14.4186790800000004   F   F   F
 12.9670244074320991  5.9888300450633221 17.6199565500000013   T   T   T
  2.2778395240194005 10.4695163259331085 17.6333187299999992   T   T   T
 -2.6891293613120855 14.4573731966584074 17.6333099599999983   T   T   T
  8.2573174471369661 17.9180497879664813 20.7713231299999990   T   T   T
  5.0382377667302869 16.4497708398684637 14.4186790800000004   F   F   F
  7.0392856978562648 18.9421603632845006 11.2224002499999997   F   F   F
  1.0361419044780629 11.4649917930386156 14.4186790800000004   F   F   F
  3.0371898356042468 13.9573813164535299 11.2224002499999997   F   F   F
  3.0330206343559425 13.9644765125034898 17.6199565500000013   T   T   T
 -0.7152881680985139 16.9241068805210162 20.7526510699999989   T   T   T
  3.7964702974957660 17.4467059263132995 11.2224021900000004   F   F   F
  0.5536888903856827 15.9512929348789623 11.2224002499999997   F   F   F
  1.7954223663695679 14.9543164028977653 14.4186810199999993   F   F   F
  7.0397772172977957 18.9443035379727291 17.6094407599999982   T   T   T
 -1.4473590407404693 13.4589034114635968 14.4186790800000004   F   F   F
  0.5601452935150402 15.9499795918405933 17.6198265999999997   T   T   T
  1.7692542776200426 14.9256014356483480 20.8357225899999996   T   T   T
 -0.6880785788489465 16.9482280213230680 14.4186810199999993   F   F   F
 -1.9298120548331301 17.9452045533043147 11.2224002499999997   F   F   F
 -3.1966961472344924 18.9145197196032981 20.7613558800000000   T   T   T
 -3.9308599859586426 15.4528150298886882 14.4186790800000004   F   F   F
 -1.9304994712842873 17.9458122269524694 17.6009159500000010   T   T   T
 -3.1715795240679849 18.9421396397489090 14.4186810199999993   F   F   F
  6.2798556261725684 15.4545011289468750 17.6361827700000013   T   T   T
 15.2490661300084049 16.4512848150812019 17.6333099599999983   T   T   T
 12.7651234290911884 18.4444957263012626 17.6343160999999995   T   T   T
 14.0073355116218607 17.4467266561101368 14.4186790800000004   F   F   F
  3.7972283911334301 17.4492741572934946 17.6373985799999993   T   T   T
  5.0208089682835197 16.4251573312407615 20.8591954900000012   T   T   T
  2.5547368215119164 18.4436824582945178 14.4186790800000004   F   F   F
 -0.2052305724129742 12.4640786480483658 17.6338828899999989   T   T   T
  9.2187156049781507  8.9484604130800687 20.7526510699999989   T   T   T
 13.7304740705722352  9.4710594588722881 11.2224021900000004   F   F   F
 10.4876926634622105  7.9756464674381693 11.2224002499999997   F   F   F
 11.7294261394463160  6.9786699354570185 14.4186810199999993   F   F   F
  8.4866447323362291  5.4832569440232337 14.4186790800000004   F   F   F
 13.7312321642100770  9.4736276898525080 17.6373985799999993   T   T   T
 10.4941490665914934  7.9743331243999815 17.6198265999999997   T   T   T
 11.7032580506965722  6.9499549682079778 20.8357225899999996   T   T   T
  6.2799712427142964 15.4527943078876877 11.2224021900000004   F   F   F
  9.2459251942277447  8.9725815538822804 14.4186810199999993   F   F   F
  4.2789233115881462 12.9604047844725105 14.4186810199999993   F   F   F
 15.2490689876060301 16.4497501241280375 11.2224021900000004   F   F   F
  8.0041917182435505  9.9695580858637012 11.2224002499999997   F   F   F
  6.7373076258421616 10.9388732521624963 20.7613558800000000   T   T   T
  5.5201015525395771 11.9638113329983380 17.6010116699999983   T   T   T
  8.7634275129572572 13.4602658630292122 17.6358579999999989   T   T   T
  3.5196428496970551  9.4710801746127036 14.4186790800000004   F   F   F
 11.2472242522173733 11.4664754540420279 17.6362268799999988   T   T   T
  5.5206907808227754 11.9634696980285806 11.2224002499999997   F   F   F
  8.7634721801348547 13.4588826957232808 11.2224021900000004   F   F   F
 13.9838095378982619 17.4230070039988760 20.8626666500000013   T   T   T
  4.2576834938909709 12.9317268903375702 20.7530091100000007   T   T   T
  6.0031437871173381  7.4771685624484139 14.4186790800000004   F   F   F
  8.0035043017921090  9.9701657595117492 17.6009159500000010   T   T   T
  6.7624242490089053 10.9664931723080041 14.4186810199999993   F   F   F
 16.2138593992492908  7.4788546615063591 17.6361827700000013   T   T   T
  2.5310112742332169 18.4236657476063712 20.8596134599999985   T   T   T
 12.9711936086808510  5.9817348490131241 11.2224002499999997   F   F   F
 -2.2315491720548604  9.9421817979280807 20.7737129699999983   T   T   T
  9.5226201516874429 16.9496413747446653 17.6100419099999996   T   T   T
  0.0000000000000000  0.0000000000000000 11.2224002499999997   F   F   F
  9.7283782083203114  4.4862804120419622 11.2224021900000004   F   F   F
  6.4863422464465046  2.9928588449732363 17.6093819300000014   T   T   T
  7.7024546010221124  1.9665353304870177 20.7737129699999983   T   T   T
  4.4608233228053980  0.4784611865037274 20.8596134599999985   T   T   T
  2.7603283867569051  5.9817141254772093 14.4186810199999993   F   F   F
 -0.4824530062947758  4.4863011355799873 14.4186790800000004   F   F   F
  1.5184284271831352  6.9800832810832087 17.6100419099999996   T   T   T
  2.7354725909945294  5.9543430292847805 20.7708297399999999   T   T   T
 -0.5040331626361585  4.4604756423103762 20.8647367099999990   T   T   T
  0.2768274493362188  7.9756257376417370 14.4186810199999993   F   F   F
  3.2427814008493350  1.4954129836365926 11.2224021900000004   F   F   F
  8.9690977464287869  0.9969558021822582 11.2224002499999997   F   F   F
  6.4855968012098737  2.9908674206078967 11.2224002499999997   F   F   F
  5.2438293319753893  3.9878025070519012 14.4186810199999993   F   F   F
  5.7262823460681318 -0.4984986347886746 11.2224021900000004   F   F   F
  5.7270404459663240 -0.4959303960106478 17.6373985799999993   T   T   T
  8.4617304327159388  5.4603981633733891 20.8578320700000006   T   T   T
 -1.7242204817900326  5.4832362142266380 11.2224021900000004   F   F   F
  7.2448772631014791  6.4801920304675829 11.2224021900000004   F   F   F
  3.4983281642385951  9.4457124658203160 20.8627694400000010   T   T   T
  0.7592357947137405  3.4907077771655164 17.6358579999999989   T   T   T
  3.2430325277131526  1.4969173603810244 17.6362268799999988   T   T   T
  0.7592804556305044  3.4893246020619966 11.2224021900000004   F   F   F
  5.9796178196543277  7.4534489181360026 20.8626666500000013   T   T   T
 -0.0006874164514858  0.0006076736483394 17.6009159500000010   T   T   T
 15.9136215927308964 -0.5221975493049733 20.8626666500000013   T   T   T
 10.9498450078694987  3.4630208449199369 20.8580097900000005   T   T   T
  2.2778753804623637 10.4680152610570065 11.2224021900000004   F   F   F
  4.4845488763446628  0.4984779049901604 14.4186790800000004   F   F   F
  8.9695892721306549  0.9990989846686968 17.6094407599999982   T   T   T
 10.2108312224127342 -0.0000207297987682 14.4186810199999993   F   F   F
  5.2188313181910821  3.9614912712817958 20.7710963100000008   T   T   T
 14.6953800909595582  0.4984571814518173 11.2224021900000004   F   F   F
 13.4323319373150323  1.4700659983794058 20.8627694400000010   T   T   T
  4.7613763178829789  8.4741036488926955 11.2224021900000004   F   F   F
  1.9772946175510278  2.4681025658018729 20.8648019200000014   T   T   T
  1.5185949185707557  6.9786906511974802 11.2224002499999997   F   F   F
  4.0022641664051246  4.9859633347475647 17.6099882500000007   T   T   T
  2.0010479311260401  2.4923895234154703 14.4186790800000004   F   F   F
  4.0020958559916018  4.9847790390326967 11.2224002499999997   F   F   F
  7.7273302771941879  1.9938908886267281 14.4186810199999993   F   F   F
 10.1871294957094030 -0.0271547731349280 20.7713231299999990   T   T   T
  8.7634896089965295 13.4589014171488568 13.1962788300000007   F   F   F
 14.2129438042281588  4.9847804677137209 12.4448000800000003   F   F   F
  9.2459426230891726  8.9726002753083964 10.0000000000000000   F   F   F
  4.7613930515049070  8.4741258011112794 15.6410789000000001   F   F   F
  6.2862442428893370 12.9169965436553316 14.4186792199999996   F   F   F
  4.7551379444513433 11.0099425295918980 14.4186795199999995   F   F   F
 11.7356991474189272  4.4428721649643084 11.2224003900000007   F   F   F
  9.7356152948520567  4.4989461653923168 22.0440143000000006   T   T   T
  8.7503462875557378 13.4455326190666060 19.6131309800000011   T   T   T
  6.8260387823935620 11.0469879941009186 18.8127025900000007   T   T   T
  4.2865717094361191 10.4274734043685537 17.6484494900000008   T   T   T
  6.7578733716402386 13.5065754039053214 17.6071776399999997   T   T   T
 12.7507997332678276 18.4286857220032090 22.0455896500000001   T   T   T
  6.2610883430881605 12.8867123276392572 20.8981969999999997   T   T   T
  4.7402835092655611 10.9893342938905132 20.8662595400000015   T   T   T
 13.2480384853412918 13.9573793221391877 10.0000000000000000   F   F   F
  4.2789407404497517 12.9604235058984951 10.0000000000000000   F   F   F
  9.6795006279114268  7.0115746572451041 20.8367693400000000   T   T   T
 11.2179877226750211  8.9152456746011719 20.8830290400000003   T   T   T
 14.2066887034355531  7.5205972039915938 11.2224006900000006   F   F   F
  6.7473729751265994 10.9489358952271996 16.3798941800000009   T   T   T
 11.2469905542153068 11.4649897987237157 13.1962788300000007   F   F   F
  5.2438467670976099  3.9878212362755878 10.0000000000000000   F   F   F
 13.7367470785451733  6.9352616883797271 14.4186792199999996   F   F   F
 13.7203122277295826  9.4615486780612859 19.6137163900000004   T   T   T
  6.7561858755773772 13.5023320530070041 11.2224006900000006   F   F   F
 13.2480377838410295 13.9573827451341312 12.4448000800000003   F   F   F
 13.2417826767874871 16.4931994736149008 11.2224006900000006   F   F   F
 11.2469898527150605 11.4649932217190642 15.6410789000000001   F   F   F
 12.7718410503602904 15.9078639720606478 14.4186792199999996   F   F   F
 11.2407347456615945 14.0008099501999350 14.4186795199999995   F   F   F
 11.7273277352429979  9.5161021397755885 17.6168341499999990   T   T   T
 13.3186696069731685 14.0446953198596862 18.8242153799999983   T   T   T
 13.2442019242722910 16.4970744929946989 17.6070558800000008   T   T   T
 11.2318038956366824 11.4476740496311802 22.0462408799999992   T   T   T
 12.7474951571980935 15.8792786242292774 20.9097154299999985   T   T   T
 11.2232732495741079 13.9825218282222661 20.8826556200000013   T   T   T
 15.2490864164676694 16.4497688455543809 13.1962788300000007   F   F   F
 10.7645368386223268 15.9512943635594358 12.4448000800000003   F   F   F
  8.2872921740150893 15.4093860670706615 11.2224003900000007   F   F   F
 10.7723887095248241 13.4190985315279416 17.6542639799999996   T   T   T
  9.2540193052471018  6.4408364065542063 17.6470062500000004   T   T   T
 11.7477216013400270  7.0032050892511624 18.8584769799999989   T   T   T
 11.7203536979967495  6.9684238872237660 16.3914620299999996   T   T   T
 12.2056407723093852  5.0282076805765410 14.4186795199999995   F   F   F
  9.2420602493631314  8.9556401789151163 16.3864414899999993   T   T   T
  4.3440872344146726 13.0303158010726303 18.8146391500000014   T   T   T
  4.2851963117634391 10.4246070202400087 11.2224003900000007   F   F   F
 11.7376147205349355  4.4467207898066636 17.6469206000000014   T   T   T
 14.2058377280382331  7.5259796783810788 17.6170832900000001   T   T   T
 11.2326354445677445 11.4549363993808608 19.6129327800000013   T   T   T
 13.7275033983925532  6.9007023191459727 20.8828175300000005   T   T   T
 12.2010257602900545  4.9874344786904441 20.8381260399999988   T   T   T
 11.7294435683078433  6.9786886568831630 10.0000000000000000   F   F   F
 11.7294428668074762  6.9786920798783623 12.4448000800000003   F   F   F
  9.2521982022004359  6.4367837833896946 11.2224003900000007   F   F   F
 11.7231877660145081  9.5145088161558906 11.2224006900000006   F   F   F
 13.7304914994336933  9.4710781802986173 13.1962788300000007   F   F   F
  9.7283949419417972  4.4863025642607699 15.6410789000000001   F   F   F
 11.2532461333264386  8.9291733068048860 14.4186792199999996   F   F   F
  9.7221398348884041  7.0221192927413458 14.4186795199999995   F   F   F
 12.2118958793627659  2.4923909520962031 15.6410789000000001   F   F   F
 15.7377950096712240  9.4276512117943607 11.2224003900000007   F   F   F
  8.7697451881075938 10.9230849252302793 14.4186792199999996   F   F   F
  7.2182287085733821  8.9997656590827315 20.8656213999999984   T   T   T
 -0.6880611499874529 16.9482467427492622 10.0000000000000000   F   F   F
  4.2789400311516754 12.9604269351542012 12.4448000800000003   F   F   F
  1.8016953743424828 12.4185186324053038 11.2224003900000007   F   F   F
  4.2726849303588299 15.4962436714323122 11.2224006900000006   F   F   F
  2.2778921062861777 10.4680374195367119 15.6410789000000001   F   F   F
  3.8027433054682316 14.9109081558206658 14.4186792199999996   F   F   F
  2.2716369992328662 13.0038541480168757 14.4186795199999995   F   F   F
 -0.6919435237133253 16.9312866463557299 16.3864414899999993   T   T   T
  1.8036109474585071 12.4223672572475063 17.6469206000000014   T   T   T
  4.2718339549618083 15.5016261458218541 17.6170832900000001   T   T   T
  3.7934996253163114 14.8763487865866342 20.8828175300000005   T   T   T
  2.2670219872137363 12.9630809461309600 20.8381260399999988   T   T   T
  1.7954397952312959 14.9543351243235261 10.0000000000000000   F   F   F
  1.7954390937310638 14.9543385473185442 12.4448000800000003   F   F   F
 -0.6818055708757296 14.4124302508295816 11.2224003900000007   F   F   F
  1.7891839929378257 17.4901552835980709 11.2224006900000006   F   F   F
  3.7964877263574195 17.4467246477386482 13.1962788300000007   F   F   F
 -0.1983884782243823 12.4745926328321293 22.0440143000000006   T   T   T
  1.2839839495982801 16.8908921420416362 20.8830290400000003   T   T   T
 -0.2545031451651738 14.9872211246862630 20.8367693400000000   T   T   T
 -3.1079649906829037 19.0226344615415357 18.8127025900000007   T   T   T
 15.2428306079138345 18.9855889970298080 14.4186795199999995   F   F   F
 14.7740712173206301 18.4034408041095077 17.6486367800000004   T   T   T
 15.2224204268170080 18.9693237449458110 20.8656213999999984   T   T   T
 12.7655847697482354 18.4436838869749309 15.6410789000000001   F   F   F
 -3.1653065160949883 16.4063418692555132 11.2224003900000007   F   F   F
 -3.1715620874081853 18.9421583549137011 10.0000000000000000   F   F   F
 -0.6880618514882126 16.9482501657448665 12.4448000800000003   F   F   F
 -2.6891097763529803 14.4558606501266151 15.6410789000000001   F   F   F
 -0.2056088311347377 12.4619490317016055 15.6410789000000001   F   F   F
 -1.1642585849686515 18.8987313926710385 14.4186792199999996   F   F   F
  4.2621257221179860 12.9538621229946553 16.3865724200000002   T   T   T
 -0.6334935210667965 17.0304726385111778 18.8143184900000016   T   T   T
 -3.1641242739997235 16.4095291856873544 17.6486367800000004   T   T   T
 -1.1918750007249557 18.8703170788539438 20.8980533900000012   T   T   T
 -2.7157750645027807 16.9754121265235014 20.8656213999999984   T   T   T
 -3.1715627967067999 18.9421617841695991 12.4448000800000003   F   F   F
  5.8037912365945754 17.4032976792357914 11.2224003900000007   F   F   F
 -3.1866307979499435 18.9245823626679339 16.3798941800000009   T   T   T
 -2.6953648834061728 16.9916773786067239 14.4186795199999995   F   F   F
  6.7624409763703257 10.9665153167292733 12.4448000800000003   F   F   F
  1.3192423602502110 16.9048197742446789 14.4186792199999996   F   F   F
  1.7863499249205397 14.9440703546641540 16.3914620299999996   T   T   T
 12.2118965824004473  2.4923875150426102 13.1962788300000007   F   F   F
 14.6806117881005065  0.4834811686991642 22.0455896500000001   T   T   T
  6.7686972569819552  8.4306954018144804 11.2224003900000007   F   F   F
  6.7624416778706582 10.9665118937334913 10.0000000000000000   F   F   F
  9.2459419215886314  8.9726036983036455 12.4448000800000003   F   F   F
  9.2396868207961305 11.5084204345817849 11.2224006900000006   F   F   F
  6.2799886715756177 15.4528130293139920 13.1962788300000007   F   F   F
  7.2448939967230377  6.4802141826862769 15.6410789000000001   F   F   F
 10.7582817315689940 18.4871110920396049 11.2224006900000006   F   F   F
  7.2386388896698417  9.0160309111664514 14.4186795199999995   F   F   F
 14.1961294951944694  4.9782156555537984 16.3865724200000002   T   T   T
  9.3005102520096017  9.0548261710707276 18.8143184900000016   T   T   T
  6.7698794990769517  8.4338827182463145 17.6486367800000004   T   T   T
  9.2420861132390630 11.5123362642215437 17.6069139300000010   T   T   T
  6.2704854462513122 15.4390592473145549 19.6127172200000004   T   T   T
 15.2370846400294653 16.4351059485464575 22.0447292600000004   T   T   T
  8.7421287723515668 10.8946706114134475 20.8980533900000012   T   T   T
 12.1959357796509416  2.4701562896087186 19.6103836300000012   T   T   T
 12.6880937864018772  0.5419065387358142 11.2224006900000006   F   F   F
 14.6953975198211033  0.4984759028777024 13.1962788300000007   F   F   F
 12.2181521537134437 -0.0434289706159099 14.4186792199999996   F   F   F
  1.8137178282636981 14.9788515566916143 18.8584769799999989   T   T   T
 -0.6799844678294349 14.4164828739945658 17.6470062500000004   T   T   T
  1.7933239621663422 17.4917486072157971 17.6168341499999990   T   T   T
  3.7863084546526515 17.4371951455021161 19.6137163900000004   T   T   T
  8.2810358934041055 17.9452059819846852 12.4448000800000003   F   F   F
  8.2640946088268947 17.9258558131941754 16.3840471500000007   T   T   T
  6.2799879622779580 15.4528164585696377 15.6410789000000001   F   F   F
  6.2737328552244485 17.9886331870499276 14.4186795199999995   F   F   F
 -0.2118639381882268 14.9977657601822454 14.4186795199999995   F   F   F
  8.3494933755853022 18.0339881639116228 18.8243953899999994   T   T   T
  6.2631012109628239 15.4368857212435042 22.0459049699999987   T   T   T
  6.2561506371271189 17.9700757176603148 20.8782430300000001   T   T   T
  3.7741665469658301 17.4217989247889591 22.0467410299999997   T   T   T
  3.7964870248571554 17.4467280707339754 15.6410789000000001   F   F   F
 10.2108486575345943 -0.0000020005750017 10.0000000000000000   F   F   F
 12.1922632274207778 -0.0706337284867278 20.9098697599999994   T   T   T
 14.6797415485163700  0.4822088308238044 19.6115347799999995   T   T   T
 12.6898754958888063  0.5462080563667016 17.6071074400000001   T   T   T
  5.8066984085819033 17.4075512961041454 17.6560092299999987   T   T   T
 12.7655854712488974 18.4436804639794616 13.1962788300000007   F   F   F
  8.7398087642064048 15.9765343651897087 20.8829571200000004   T   T   T
 10.2883401051413461 17.9017755904861460 14.4186792199999996   F   F   F
  3.2276121773930697  1.4781159637676371 22.0462408799999992   T   T   T
  2.2619320065742237 10.4458027570490994 19.6103836300000012   T   T   T
  5.2400101997680117  6.5275163993330541 17.6070558800000008   T   T   T
  2.7681969850209125  3.4495404378667569 17.6542639799999996   T   T   T
  5.3144778887296997  4.0751372339963883 18.8242153799999983   T   T   T
 10.1939066558622073 -0.0193487338501850 16.3840471500000007   T   T   T
  3.2365430274177527  4.0312518643360402 14.4186795199999995   F   F   F
  4.7676493258555759  5.9383058783998752 14.4186792199999996   F   F   F
  3.2427981344711103  1.4954351358558124 15.6410789000000001   F   F   F
  2.2778928093236726 10.4680339824831083 13.1962788300000007   F   F   F
 -2.7011108512905242 14.4411943301232935 22.0447292600000004   T   T   T
 -2.2004004879095174  7.4337395855740365 11.2224003900000007   F   F   F
  2.2627196800347278 10.4557479949130236 22.0447950199999987   T   T   T
  0.2768441751599688  7.9756478961212753 12.4448000800000003   F   F   F
  0.2705890681065046 10.5114646246022065 11.2224006900000006   F   F   F
  0.2599028905831915  7.9562977273299520 16.3840471500000007   T   T   T
 -2.6891090811134344 14.4558572193334900 13.1962788300000007   F   F   F
  4.7433034389543209  5.9097205383658729 20.9097154299999985   T   T   T
 -2.7105172953533039 14.4379642923925520 19.6103440199999994   T   T   T
  3.2190815313298913  4.0129637423593945 20.8826556200000013   T   T   T
  2.7603451203785934  5.9817362776962870 12.4448000800000003   F   F   F
 14.2192000848396436  2.4489605527993898 11.2224003900000007   F   F   F
 14.6953968245812554  0.4984793336709306 15.6410789000000001   F   F   F
 16.2202480159657618  4.9413500762146239 14.4186792199999996   F   F   F
 14.6891417175280310  3.0342960621510482 14.4186795199999995   F   F   F
 16.6813767482030499  2.9732894277867050 16.3798941800000009   T   T   T
 16.7600425554702070  3.0713415266600190 18.8127025900000007   T   T   T
 14.2205754825129187  2.4518269369274872 17.6484494900000008   T   T   T
 16.6918771447170293  5.5309289364641767 17.6071776399999997   T   T   T
 16.1950921161644388  4.9110658601985921 20.8981969999999997   T   T   T
 14.6742872823421813  3.0136878264499405 20.8662595400000015   T   T   T
 14.2129445135265815  4.9847770384579153 10.0000000000000000   F   F   F
 19.1799463961655654  0.9969538078677633 10.0000000000000000   F   F   F
 19.1760640224397605  0.9799937114745827 16.3864414899999993   T   T   T
 14.2780910074912679  5.0546693336319439 18.8146391500000014   T   T   T
 16.6901896486542789  5.5266855855662183 11.2224006900000006   F   F   F
  2.7540900133252766  8.5175530061764437 11.2224006900000006   F   F   F
  0.2831004495113039  5.4398279734093169 11.2224003900000007   F   F   F
  7.2448946919627435  6.4802107518933969 13.1962788300000007   F   F   F
 -1.7242037559661352  5.4832583727065245 15.6410789000000001   F   F   F
 -0.1993525567839622  9.9261291089895192 14.4186792199999996   F   F   F
 -1.7304588630192530  8.0190751011864929 14.4186795199999995   F   F   F
  3.7231360169991206 -0.4534559460875620 17.6168341499999990   T   T   T
  5.7262997811900416 -0.4984799055648530 13.1962788300000007   F   F   F
  3.7189960415103833 -0.4550492775048767 11.2224006900000006   F   F   F
 12.1967234531113604  2.4801015274725504 22.0447950199999987   T   T   T
  3.2284437200633143  1.4853783057195127 19.6129327800000013   T   T   T
  1.2354950962919080  1.5388623409202058 11.2224006900000006   F   F   F
 -1.7242030466678084  5.4832549434504738 13.1962788300000007   F   F   F
  0.7655534698640292  0.9535268393665621 14.4186792199999996   F   F   F
  1.2378943949953456  1.5427781783579899 17.6069139300000010   T   T   T
 -1.7337062719924230  5.4695011614509763 19.6127172200000004   T   T   T
  7.2328929217857469  6.4655478626828593 22.0447292600000004   T   T   T
  0.7379370541078618  0.9251125255499435 20.8980533900000012   T   T   T
  7.7336032851665992 -0.5419068818661668 11.2224003900000007   F   F   F
  0.7592978907531371  3.4893433312856974 13.1962788300000007   F   F   F
 -1.2463183466033687  3.5370173180415474 17.6071776399999997   T   T   T
  0.7461545693124982  3.4759745332028817 19.6131309800000011   T   T   T
  4.7466080150239538  8.4591276361403072 22.0455896500000001   T   T   T
  5.7161205094856236 -0.5080094078015858 19.6137163900000004   T   T   T
 10.2108479482366921  0.0000014286807453 12.4448000800000003   F   F   F
 -1.2480058489268284  3.5327739593460930 11.2224006900000006   F   F   F
 10.2045928411833380  2.5358181571609766 11.2224006900000006   F   F   F
  0.3453016510809572  8.0644300702505287 18.8243953899999994   T   T   T
 -2.1974933159224488  7.4379932024431721 17.6560092299999987   T   T   T
  0.2728926984258688 10.5161512241409145 17.6075048500000015   T   T   T
 -1.7410905072808944  5.4673276353799150 22.0459049699999987   T   T   T
 -0.2250769335582952  9.9006280693715905 20.9091139699999999   T   T   T
 -1.7480410873774694  8.0005176239994160 20.8782430300000001   T   T   T
 -2.2066567622609963  9.9695595082862969 12.4448000800000003   F   F   F
 -2.2066560607605421  9.9695560852910123 10.0000000000000000   F   F   F
 16.6964447494467336  2.9908688492882494 12.4448000800000003   F   F   F
 -2.2129118693140679 12.5053762367663044 11.2224006900000006   F   F   F
 -2.7056321607035354 11.8919992702516257 20.9089631999999987   T   T   T
 -0.2253187300948127 12.4405676915718839 19.6105524899999999   T   T   T
 -2.2102397637664897 12.5098414966023714 17.6074909899999987   T   T   T
 -0.2056081358946660 12.4619456009082779 13.1962788300000007   F   F   F
 -2.2227215511253124  9.9505839908092373 16.3841381599999991   T   T   T
 -2.6828535020023896 11.9200407274149942 14.4186792199999996   F   F   F
  5.2375909585440326  6.5236413877512245 11.2224006900000006   F   F   F
  5.2438460655972960  3.9878246592709008 12.4448000800000003   F   F   F
 -2.1356867680461509 10.0593926399724847 18.8252983299999990   T   T   T
 17.1522324816500173  1.0241191916422654 20.8656213999999984   T   T   T
 18.6761325454283842  2.9190241439728002 20.8980533900000012   T   T   T
 16.2044892193278613  7.4634127798739360 19.6127172200000004   T   T   T
 15.7252836220062431 14.4992878551891931 11.2224006900000006   F   F   F
 15.8025087232739931 12.0533042583949186 18.8252983299999990   T   T   T
 13.7064437550868981 11.9882480218116942 20.8780295199999983   T   T   T
 15.2325633306166051 13.8859108886742657 20.9089631999999987   T   T   T
 13.7081703200423473  9.4461524573492195 22.0467410299999997   T   T   T