Al Ti Al La Sr La  O Sr Ti 
 1.0000000000000000
    47.3999999999999986    0.0000000000000000    0.0000000000000000
     0.0000000000000000    3.9500000000000002    0.0000000000000000
     0.0000000000000000    0.0000000000000000    3.9350000000000001
 Al  Ti  Al  La  Sr  La  O   Sr  Ti 
   1   1   6   5   1   1  36   5   4
Cartesian
 21.6472494449906740  1.9862306224031760  1.9867194300751536
 10.1744619898606032  1.9832006472388839  1.9779514460295340
 33.1048637621540109  1.9838502085795309  1.9796991943247200
 14.0858177433884322  1.9847168750378492  1.9834485222205303
 37.1947814525156986  1.9826456811172386  1.9766263929390961
 17.8766587224437785  1.9865925906669477  1.9868207583273254
 25.4160946020303129  1.9865023144923204  1.9860240898310138
 29.2008091509972409  1.9863321292060663  1.9839109435282922
 19.7393153789908808  0.0114263447975556  0.0200384810404651
 23.5559971728532496  0.0105699433409203  0.0189891558032580
 15.9052308198199057  0.0101271886996578  0.0172962962084199
 27.3861266745245047  0.0109415503820640  0.0175437166781277
 35.1535341775687229  0.0088333759884799  0.0109759181105387
 12.1869776856265748  0.0097536749743223  0.0139016311279281
 31.0962285012715789  0.0111486553574044  0.0153819498904621
  8.0980344365183203  1.9829669989448375  1.9791128714122568
 10.1297285201638552  0.0083863829516778  1.9787681554413195
 14.1681251341147689  1.9852794854730016  0.0161837435707657
 14.1689852621563563  0.0103989168678114  1.9837365518457646
  4.0337691065941632  1.9818237959576399  1.9781630487611406
 16.0053754912627717  1.9862699496900234  1.9852186348581555
  6.0610457863107277  0.0066180172116886  1.9778857330398167
 17.9058782126233957  1.9865496518999992  0.0187203021104370
 19.7679693723881762  1.9871283436014731  1.9863676862249420
 10.1295345068059284  1.9835361760081640  0.0115515397971900
 21.6469118814550754  0.0118087445946497  1.9865888915087535
 12.1698848283582315  1.9844343832004685  1.9816978939517065
  6.0606095750134674  1.9816501832724145  0.0100432403565632
 17.9066183803570063  0.0117195705660479  1.9863493459262247
 21.6468937462455955  1.9867284586843710  0.0189825226345825
 31.1127103222999679  1.9854963634692646  1.9823272748346237
  2.0008106980209148  0.0071391129539614  1.9790795931675118
 35.1818215924091646  1.9841893472467851  1.9792940519384645
 29.1185494699039964  1.9860375150300478  0.0167732836099108
 29.1178282141293892  0.0113443958823288  1.9845643417798204
  2.0004688133280188  1.9827354117062170  0.0107472842841020
 25.3857283030191354  0.0120111809450761  1.9858538680602598
 45.3425617831105754  1.9812463467312518  0.0084878619935737
 41.2883450080502215  1.9831126394000158  0.0107559447082292
 43.3156922451966722  1.9817176371609229  1.9769061601654869
 45.3425910676391339  0.0061951687371114  1.9755812762214264
 27.2849135520216457  1.9868733719158238  1.9852859807160146
 37.2181410771234127  0.0077982245462114  1.9776863735303660
 37.2184946156716734  1.9827462572143075  0.0102372412902512
 41.2879413385051706  0.0072226343029035  1.9789594537745978
 25.3863568835542601  1.9870187753589477  0.0184309065776886
 33.1497494271735533  0.0097582102565746  1.9813763012323706
 23.5261555578406423  1.9873638112903884  1.9864645195964872
 47.3729927692510557  1.9817448952478292  1.9772621301310573
 39.2513975918264251  1.9824165326542960  1.9778242001734800
 33.1498811271936731  1.9860455090131532  0.0131318691683605
 47.3773822784032745  0.0059456197424057  0.0091362855851927
  4.0475942717343099  0.0066941322767464  0.0105348463198616
 39.2393061363159248  0.0074757723444522  0.0104090939874040
 43.3150432040299620  0.0066640565430052  0.0095982006492546
  8.1233256444451847  0.0077051669578210  0.0108187500362356
 41.2749519510904221  1.9822662620500946  1.9774190613677891
  2.0103588024246850  1.9818000004002509  1.9772428505564663
  6.0832087142277995  1.9811977203636704  1.9770966616072045
 45.3425189913986912  1.9808536967193882  1.9750028750298636
