 C Cl  N Ru 
 1.0000000000000000
     9.4573626225804883    0.0000000000000000    0.0000000000000000
    -4.7286813112902424    8.1903162839561290    0.0000000000000000
     0.0000000000000000    0.0000000000000000   12.2265931800829026
 C   Cl  N   Ru 
  18   1   1   1
Direct
  0.1258426939641978  0.0068983672128650  0.0728698860192095
  0.4247450157390972  0.4220573376833526  0.0783044418254513
  0.9799700906329002  0.5791077127230186  0.0545657727440889
  0.5508761229474639  0.0159381556856327  0.0556932465648600
  0.5529883510934956  0.5729496733303058  0.0583171459625632
  0.9787793642433205  0.4368850592758258  0.0519144848923394
  0.4292989366670802  0.0474711295017466  0.0791899788722645
  0.2828488556456961  0.2923291083353902  0.0869915056367302
  0.6761426237105185  0.0064476599876553  0.0463216641857465
  0.9803209729430004  0.7092999841218588  0.0573021088636729
  0.9760913354428243  0.3055612723332020  0.0506311286913919
  0.2880048727862674  0.0365824938429483  0.0962413477398447
  0.1236783228199574  0.1567614883313553  0.0685976671216257
  0.9799312496634686  0.8567624732860607  0.0580470855585907
  0.8240839943830254  0.0051500403093179  0.0463691111812400
  0.8268589552591790  0.8557389124453122  0.0488016396022635
  0.9761354807558374  0.1580228584695436  0.0523946397478790
  0.6803959430743934  0.7058255669492806  0.0502826902370547
  0.6306260343737752  0.2020559165576782  0.2784853622436003
  0.3980219018023417  0.2951335209892324  0.3082150915168487
  0.4489746469067162  0.2491098069573490  0.1720275766403802
